$CONTRL SCFTYP=RHF RUNTYP=OPTIMIZE COORD=UNIQUE $END
$CONTRL MPLEVL=2 RUNTYP=ENERGY $END

$SYSTEM TIMLIM=600 MEMORY=1000000 $END

$BASIS GBASIS=6-31G* $END
$BASIS GBASIS=aug-cc-pVTZ $END

$DATA
Title
C1
H
C    0.0  0.0  0.0
H    0.0  0.0  1.0   ! Adjust the coordinates accordingly
Cl   0.0  0.0  2.0
$END
