$CONTRL SCFTYP=NONE RUNTYP=VIBRATION COORD=UNIQUE ICHARG=0 $END
$CONTRL MPLEVL=2 RUNTYP=ENERGY $END

$SYSTEM TIMLIM=600 MEMORY=1000000 $END

$BASIS GBASIS=6-31G** $END

$DATA
Title
C1
H    0.0  0.0  0.0
D    0.0  0.0  1.0
O    0.0  1.0  0.0
$END
