! Внимание - это расчет в базисе STO-3G надо задать свой базис!!!
 $CONTRL 
 runtyp=sadpoint 
! runtyp=hessian
 UNITS=ANGS
 mplevl=2 
! exetyp=check
 ispher=1
 $END
 $basis gbasis=cct $end
 $statpt nstep=100 hssend=.t.  ifolow=1 
 hess=calc
! ihrep=3
 $end
 $system TIMLIM=9000 
 mwords=80 memddi=20 $end
 $DATA

 c1
 C           6.0   0.2724176279  -1.4172797775  -0.2909748845
 C           6.0   0.1935919963  -0.2742858816   0.4173627717
 C           6.0  -1.0125608063   0.6233895891   0.3688602036
 O           8.0  -1.1271340507   1.5584969922  -0.4058344138
 H           1.0   1.1648447849  -2.0488567021  -0.2503118293
 H           1.0  -0.5512999831  -1.7461566256  -0.9339384364
 H           1.0   1.0245493111   0.0449338876   1.0601172153
 H           1.0  -1.8215836713   0.3844174753   1.1059428632
 $end
 H           1.0  -1.9709232082   2.3727166926  -0.2340665552
 H           1.0  -0.2559020003   2.1426243502  -0.8371569346
 $HESS
ENERGY IS     -190.7440233590 E(NUC) IS      100.7616762966
 1  1 6.45278621E-01-1.10307946E-01 1.50901089E-01-1.18735014E-01 4.05524476E-02
 1  2 2.09317674E-03 6.60398911E-03 2.64567624E-02 1.67684250E-02-4.02358192E-03
 1  3 4.63737436E-03-3.25060635E-03-2.82306325E-01 1.45828217E-01-1.56762967E-02
 1  4-2.50399281E-01-7.78054412E-02-1.30070250E-01 6.69625605E-03-2.79492586E-02
 1  5-1.75618026E-02-3.11453894E-03-1.41308102E-03-3.20345365E-03
 2  1-1.10307946E-01 8.34550718E-01 3.60716388E-01 3.04356446E-02-5.58111568E-01
 2  2-2.74769267E-01 3.74745014E-03-1.86245989E-02-9.71621954E-03 1.51759314E-03
 2  3 3.15527265E-03 6.74542579E-04 1.51473904E-01-1.55818240E-01-2.20290812E-03
 2  4-8.16648998E-02-1.00738608E-01-6.69713858E-02 4.06896685E-03-4.93131123E-03
 2  5-7.69426390E-03 7.28427076E-04 5.19914384E-04-3.59342456E-05
 3  1 1.50901089E-01 3.60716388E-01 4.05156540E-01-5.48455807E-03-2.76519541E-01
 3  2-2.16604245E-01 1.03940861E-03 3.98420305E-04 7.08601760E-03-2.11770725E-03
 3  3 1.80818624E-03-9.24921183E-04-1.14484575E-02-4.03981495E-03-5.22281969E-02
 3  4-1.32657213E-01-6.38176863E-02-1.40941315E-01 1.15944922E-03-1.94370879E-02
 3  5-1.62682273E-03-1.39205176E-03 8.91707504E-04 8.31933719E-05
 4  1-1.18735014E-01 3.04356446E-02-5.48455807E-03 5.73705717E-01-5.16480778E-02
 4  2 1.25976601E-01-2.15541587E-01 5.40824640E-02 3.57022802E-03 1.34607127E-02
 4  3 1.26489719E-02-2.71839786E-03 3.90094587E-03 2.79604782E-02 1.63531001E-02
 4  4 8.47216687E-03-2.49522052E-02-1.69707329E-02-2.54631665E-01-6.85685094E-02
 4  5-1.26157963E-01-1.06315556E-02 2.00419658E-02 5.43163993E-03
 5  1 4.05524476E-02-5.58111568E-01-2.76519541E-01-5.16480778E-02 8.16612336E-01
 5  2 3.38377293E-01 6.44767705E-02-1.38455766E-01-1.02066775E-02 3.05655212E-02
 5  3-2.39618747E-02 8.77856758E-03-4.16890349E-03-1.36921215E-02-9.74446796E-03
 5  4 3.64882386E-03-3.68659339E-03-6.20470899E-03-7.90894295E-02-9.12660830E-02
 5  5-5.58520897E-02-4.33633254E-03 1.25607454E-02 1.13712880E-02
 6  1 2.09317674E-03-2.74769267E-01-2.16604245E-01 1.25976601E-01 3.38377293E-01
 6  2 4.01961329E-01 3.36399876E-03-5.33643256E-03-9.70270761E-02-1.35547894E-02
 6  3 1.40892648E-02 1.31240741E-02-3.54766321E-03-6.56591310E-04 7.33491423E-03
 6  4 1.66638053E-03-1.78198702E-02-1.75496004E-03-1.34388300E-01-5.33498433E-02
 6  5-1.27048456E-01 1.83896867E-02-5.34419331E-04 2.00153519E-02
 7  1 6.60398911E-03 3.74745014E-03 1.03940861E-03-2.15541587E-01 6.44767705E-02
 7  2 3.36399876E-03 6.41430972E-01-1.13333764E-02-1.36584986E-01-1.51617593E-01
 7  3 5.14982463E-04 9.42700753E-03 3.36821629E-03-2.18484196E-04-6.16356730E-03
 7  4-1.04357958E-03-3.51958720E-03 2.44146800E-03-1.56307918E-02 1.56968795E-02
 7  5 7.59240227E-04-2.67570497E-01-6.93644051E-02 1.25717840E-01
 8  1 2.64567624E-02-1.86245989E-02 3.98420305E-04 5.40824640E-02-1.38455766E-01
 8  2-5.33643256E-03-1.13333764E-02 5.52010600E-01-1.39846850E-01 9.04421619E-03
 8  3-3.23167664E-01 1.12445470E-01 2.18751942E-03 2.06115628E-03-8.20368583E-03
 8  4-5.40857937E-04-7.57309161E-04 4.76498383E-03-1.12812098E-02 1.19484468E-02
 8  5-3.00606469E-03-6.86157717E-02-8.50162595E-02 3.87826210E-02
 9  1 1.67684250E-02-9.71621954E-03 7.08601760E-03 3.57022802E-03-1.02066775E-02
 9  2-9.70270761E-02-1.36584986E-01-1.39846850E-01 4.13868892E-01 4.78571461E-03
 9  3 1.14964436E-01-1.90863631E-01-4.44707224E-03-8.91774284E-03 8.31713227E-03
 9  4 2.39519308E-03 3.47508593E-03-5.80613877E-03-1.21856193E-02 9.94186329E-03
 9  5 4.39036751E-03 1.25698144E-01 4.03060237E-02-1.39964041E-01
10  1-4.02358192E-03 1.51759314E-03-2.11770725E-03 1.34607127E-02 3.05655212E-02
10  2-1.35547894E-02-1.51617593E-01 9.04421619E-03 4.78571461E-03 1.25186064E-01
10  3-1.77359305E-02-7.67809288E-03-1.00726560E-03-3.48394606E-04 3.26707126E-03
10  4 8.09400042E-04 1.06184232E-03-1.00926593E-03 8.09036995E-04-1.62440564E-03
10  5 1.01726330E-03 1.63835273E-02-2.24802854E-02 1.52892397E-02
11  1 4.63737436E-03 3.15527265E-03 1.80818624E-03 1.26489719E-02-2.39618747E-02
11  2 1.40892648E-02 5.14982463E-04-3.23167664E-01 1.14964436E-01-1.77359305E-02
11  3 3.63485326E-01-1.52834041E-01 4.63734571E-04-8.03724771E-04-2.00085108E-03
11  4-1.26393750E-03-8.47903089E-04 8.51091050E-04 2.36537037E-03-3.38610616E-03
11  5 1.42211300E-03-1.63032290E-03-1.44712745E-02 2.17012729E-02
12  1-3.25060635E-03 6.74542579E-04-9.24921183E-04-2.71839786E-03 8.77856758E-03
12  2 1.31240741E-02 9.42700753E-03 1.12445470E-01-1.90863631E-01-7.67809288E-03
12  3-1.52834041E-01 1.76169492E-01 3.79090427E-04 1.27921266E-03 2.40602386E-04
12  4 3.76537701E-04 2.72907941E-04 6.74220438E-05 4.75376028E-04-8.05717538E-04
12  5 1.88407903E-04 2.98897508E-03 3.01891989E-02 1.99766987E-03
13  1-2.82306325E-01 1.51473904E-01-1.14484575E-02 3.90094587E-03-4.16890349E-03
13  2-3.54766321E-03 3.36821629E-03 2.18751942E-03-4.44707224E-03-1.00726560E-03
13  3 4.63734571E-04 3.79090427E-04 2.89960229E-01-1.62445704E-01 1.48212484E-02
13  4-1.48022791E-02 1.45762540E-02 4.12779955E-04 1.00699583E-04-1.71537361E-03
13  5 3.45839910E-03 7.85721684E-04-3.71258979E-04 3.72001026E-04
14  1 1.45828217E-01-1.55818240E-01-4.03981495E-03 2.79604782E-02-1.36921215E-02
14  2-6.56591310E-04-2.18484196E-04 2.06115628E-03-8.91774284E-03-3.48394606E-04
14  3-8.03724771E-04 1.27921266E-03-1.62445704E-01 1.59585135E-01 8.34211442E-03
14  4-1.06454717E-02 9.88140095E-03-1.50676012E-03-1.86785273E-03-1.09212443E-03
14  5 4.66201082E-03 1.73675016E-03-1.21790079E-04 8.37678425E-04
15  1-1.56762967E-02-2.20290812E-03-5.22281969E-02 1.63531001E-02-9.74446796E-03
15  2 7.33491423E-03-6.16356730E-03-8.20368583E-03 8.31713227E-03 3.26707126E-03
15  3-2.00085108E-03 2.40602386E-04 1.48212484E-02 8.34211442E-03 3.95698171E-02
15  4-1.48289592E-02 8.87252877E-03 4.21638358E-03 3.33265294E-03 4.47536015E-03
15  5-6.56126517E-03-1.10482236E-03 4.62165558E-04-8.90111982E-04
16  1-2.50399281E-01-8.16648998E-02-1.32657213E-01 8.47216687E-03 3.64882386E-03
16  2 1.66638053E-03-1.04357958E-03-5.40857937E-04 2.39519308E-03 8.09400042E-04
16  3-1.26393750E-03 3.76537701E-04-1.48022791E-02-1.06454717E-02-1.48289592E-02
16  4 2.54289557E-01 8.78673672E-02 1.46610647E-01 2.96352287E-03 3.02623899E-03
16  5-3.16197163E-03-2.89514927E-04-4.27008601E-04-4.01132054E-04
17  1-7.78054412E-02-1.00738608E-01-6.38176863E-02-2.49522052E-02-3.68659339E-03
17  2-1.78198702E-02-3.51958720E-03-7.57309161E-04 3.47508593E-03 1.06184232E-03
17  3-8.47903089E-04 2.72907941E-04 1.45762540E-02 9.88140095E-03 8.87252877E-03
17  4 8.78673672E-02 9.77226386E-02 7.75902268E-02 3.09922507E-03-1.45885214E-03
17  5-8.06914815E-03-3.27266482E-04-1.14607904E-04-5.04319595E-04
18  1-1.30070250E-01-6.69713858E-02-1.40941315E-01-1.69707329E-02-6.20470899E-03
18  2-1.75496004E-03 2.44146800E-03 4.76498383E-03-5.80613877E-03-1.00926593E-03
18  3 8.51091050E-04 6.74220438E-05 4.12779955E-04-1.50676012E-03 4.21638358E-03
18  4 1.46610647E-01 7.75902268E-02 1.35304243E-01-2.90679351E-03-7.94245577E-03
18  5 8.65362984E-03 1.49222878E-03-5.81028483E-04 2.60863951E-04
19  1 6.69625605E-03 4.06896685E-03 1.15944922E-03-2.54631665E-01-7.90894295E-02
19  2-1.34388300E-01-1.56307918E-02-1.12812098E-02-1.21856193E-02 8.09036995E-04
19  3 2.36537037E-03 4.75376028E-04 1.00699583E-04-1.86785273E-03 3.33265294E-03
19  4 2.96352287E-03 3.09922507E-03-2.90679351E-03 2.61419306E-01 7.99683783E-02
19  5 1.42158113E-01-1.72616549E-03 2.73663672E-03 2.35547410E-03
20  1-2.79492586E-02-4.93131123E-03-1.94370879E-02-6.85685094E-02-9.12660830E-02
20  2-5.33498433E-02 1.56968795E-02 1.19484468E-02 9.94186329E-03-1.62440564E-03
20  3-3.38610616E-03-8.05717538E-04-1.71537361E-03-1.09212443E-03 4.47536015E-03
20  4 3.02623899E-03-1.45885214E-03-7.94245577E-03 7.99683783E-02 9.16697772E-02
20  5 6.91720866E-02 1.16607947E-03-1.48389951E-03-2.05411147E-03
21  1-1.75618026E-02-7.69426390E-03-1.62682273E-03-1.26157963E-01-5.58520897E-02
21  2-1.27048456E-01 7.59240227E-04-3.00606469E-03 4.39036751E-03 1.01726330E-03
21  3 1.42211300E-03 1.88407903E-04 3.45839910E-03 4.66201082E-03-6.56126517E-03
21  4-3.16197163E-03-8.06914815E-03 8.65362984E-03 1.42158113E-01 6.91720866E-02
21  5 1.24117956E-01-5.10857112E-04-6.34321877E-04-2.11407494E-03
22  1-3.11453894E-03 7.28427076E-04-1.39205176E-03-1.06315556E-02-4.33633254E-03
22  2 1.83896867E-02-2.67570497E-01-6.86157717E-02 1.25698144E-01 1.63835273E-02
22  3-1.63032290E-03 2.98897508E-03 7.85721684E-04 1.73675016E-03-1.10482236E-03
22  4-2.89514927E-04-3.27266482E-04 1.49222878E-03-1.72616549E-03 1.16607947E-03
22  5-5.10857112E-04 2.66163613E-01 7.12777326E-02-1.45561504E-01
23  1-1.41308102E-03 5.19914384E-04 8.91707504E-04 2.00419658E-02 1.25607454E-02
23  2-5.34419331E-04-6.93644051E-02-8.50162595E-02 4.03060237E-02-2.24802854E-02
23  3-1.44712745E-02 3.01891989E-02-3.71258979E-04-1.21790079E-04 4.62165558E-04
23  4-4.27008601E-04-1.14607904E-04-5.81028483E-04 2.73663672E-03-1.48389951E-03
23  5-6.34321877E-04 7.12777326E-02 8.81261576E-02-7.00998016E-02
24  1-3.20345365E-03-3.59342456E-05 8.31933719E-05 5.43163993E-03 1.13712880E-02
24  2 2.00153519E-02 1.25717840E-01 3.87826210E-02-1.39964041E-01 1.52892397E-02
24  3 2.17012729E-02 1.99766987E-03 3.72001026E-04 8.37678425E-04-8.90111982E-04
24  4-4.01132054E-04-5.04319595E-04 2.60863951E-04 2.35547410E-03-2.05411147E-03
24  5-2.11407494E-03-1.45561504E-01-7.00998016E-02 1.20610181E-01
 $END
