! Внимание - это расчет в базисе STO-3G надо задать свой базис!!!
 $CONTRL runtyp=sadpoint UNITS=ANGS $END
! $basis gbasis=sto ngauss=3 $end
 $statpt nstep=100 hssend=.t.  ifolow=1 hess=calc
 ihrep=3 $end
 $DATA

 c1
 C           6.0   0.2642359360  -1.4309335937  -0.2523202968
 C           6.0   0.1970183299  -0.2837785847   0.3775331574
 C           6.0  -1.0155537066   0.6125703758   0.3788112481
 C           6.0  -1.0818108284   1.7574362218  -0.2552232382
 H           1.0   1.1570929514  -2.0407920759  -0.2328919433
 H           1.0  -0.5621258735  -1.8232604858  -0.8299601867
 H           1.0   1.0547639303   0.0759404075   0.9385819343
 H           1.0  -1.8707955304   0.2574766923   0.9466928150
 H           1.0  -1.9709232082   2.3727166926  -0.2340665552
 H           1.0  -0.2559020003   2.1426243502  -0.8371569346
 $end
 $HESS
 ENERGY IS     -153.0203656315 E(NUC) IS      104.0957924723
 1  1 9.02282633E-01-1.01859636E-02 1.75514385E-17-1.69104586E-01 5.14374084E-03
 1  2-1.13585108E-17 6.32090672E-03 4.59620547E-02 1.48414801E-17-7.81706645E-03
 1  3 6.55996967E-04 1.76980330E-18-3.78515018E-01 1.69328946E-01 5.01343861E-18
 1  4-3.66158506E-01-1.73529522E-01 1.22681541E-17 9.64128257E-03-3.88414127E-02
 1  5-5.89648937E-20 2.79046251E-03 3.37455000E-04 9.76705762E-19 1.03191063E-03
 1  6 1.45644128E-03-6.85783023E-20-4.71949841E-04-3.27718346E-04-1.11562357E-20
 2  1-1.01859636E-02 1.23436678E+00-3.83525010E-17-1.02562724E-02-8.13545082E-01
 2  2 4.87078973E-16 1.46517976E-02-4.12612625E-02-1.58037565E-17 6.55815977E-04
 2  3 9.27075652E-03-5.86360046E-18 1.74019882E-01-1.83473841E-01 2.90164141E-18
 2  4-1.77980406E-01-1.94171003E-01 1.23956083E-17 1.07825571E-02-1.38062893E-02
 2  5 1.18509335E-18-2.06091427E-03 2.34218875E-03-1.23062801E-18 1.21515207E-04
 2  6 2.39218583E-05 3.13309568E-19 2.52021783E-04 2.53827864E-04 1.82739934E-19
 3  1 1.75514385E-17-3.83525010E-17 1.56564332E-01-6.08394742E-18 5.04845808E-17
 3  2-7.20375080E-02-2.01709414E-17 2.65783038E-17 9.27243860E-03-1.41202187E-18
 3  3 8.62524191E-18 3.18756662E-04 9.80349042E-17-5.91240028E-17-5.03550467E-02
 3  4-1.26575033E-16-8.07501132E-17-5.16845448E-02 2.37832710E-17 1.74050879E-17
 3  5 8.63667107E-03-1.36115653E-17-6.99172865E-18-7.86791387E-04-7.45960448E-18
 3  6 4.14480308E-18-4.28754063E-04 8.91854062E-18 5.06248077E-18 5.00384269E-04
 4  1-1.69104586E-01-1.02562724E-02-6.08394742E-18 8.27580960E-01 6.42919433E-02
 4  2-1.32131853E-16-2.99421660E-01 7.82874820E-02 7.10168887E-17 6.32275003E-03
 4  3 1.46492940E-02 1.39998398E-17 8.98791788E-03 3.86355661E-02 4.60324931E-18
 4  4 1.02560078E-02-3.75854655E-02 7.23781862E-19-3.66284183E-01-1.69260291E-01
 4  5-2.06223291E-20-1.98587335E-02 2.41213964E-02 3.54077212E-18-9.57601047E-04
 4  6-2.18067990E-03 5.32107782E-20 2.47910768E-03-7.02961421E-04 9.05848289E-20
 5  1 5.14374084E-03-8.13545082E-01 5.04845808E-17 6.42919433E-02 1.21785641E+00
 5  2-3.89133476E-16 7.82842160E-02-1.67098458E-01-5.48182239E-17 4.59558789E-02
 5  3-4.12571323E-02-1.69497704E-17-9.96444377E-03-1.20797710E-02-1.83584583E-17
 5  4 8.52290755E-03-1.29310137E-02-6.94957763E-18-1.73364453E-01-1.82297398E-01
 5  5-3.20690639E-18-1.89628328E-02 1.30706089E-02-7.41937281E-19-1.32994010E-03
 5  6-4.53018547E-03-9.87650248E-20 1.42296178E-03 2.81200348E-03-4.02551623E-19
 6  1-1.13585108E-17 4.87078973E-16-7.20375080E-02-1.32131853E-16-3.89133476E-16
 6  2 1.78376661E-01 1.99838379E-16-1.36782597E-16-8.45890865E-02 8.06624074E-18
 6  3-1.31677179E-17 9.26796035E-03-2.01130824E-17 2.23835572E-17 9.59825679E-03
 6  4 1.45713510E-17 1.19307951E-17 6.70027101E-03-1.17550542E-16-7.34209393E-17
 6  5-5.74379438E-02 5.05412823E-18 1.93651160E-18 3.86756771E-03 3.71484629E-18
 6  6-2.76090435E-18 1.71275922E-02-3.45797772E-18-3.70717720E-18-1.08737483E-02
 7  1 6.32090672E-03 1.46517976E-02-2.01709414E-17-2.99421660E-01 7.82842160E-02
 7  2 1.99838379E-16 8.27512766E-01 6.41726927E-02-5.94521966E-17-1.69117188E-01
 7  3-1.02324794E-02 9.72146179E-18-9.56597889E-04-2.18081685E-03-6.05489818E-19
 7  4 2.47947515E-03-7.02706765E-04-9.43402614E-19-1.98656393E-02 2.41249416E-02
 7  5-2.03414289E-18-3.66193742E-01-1.69156789E-01 1.92668158E-17 8.99079914E-03
 7  6 3.86277342E-02-2.67520302E-19 1.02508605E-02-3.75885790E-02-2.76984420E-19
 8  1 4.59620547E-02-4.12612625E-02 2.65783038E-17 7.82874820E-02-1.67098458E-01
 8  2-1.36782597E-16 6.41726927E-02 1.21764349E+00-8.52703383E-16 5.16487543E-03
 8  3-8.13388806E-01-6.27941344E-16-1.33035237E-03-4.53115610E-03 6.90185880E-19
 8  4 1.42224649E-03 2.81263706E-03 9.81398991E-20-1.89644274E-02 1.30713421E-02
 8  5 8.54179693E-19-1.73265401E-01-1.82241095E-01 7.72062787E-18-9.96680768E-03
 8  6-1.20737001E-02-1.30616312E-18 8.51761595E-03-1.29330099E-02-3.38070611E-18
 9  1 1.48414801E-17-1.58037565E-17 9.27243860E-03 7.10168887E-17-5.48182239E-17
 9  2-8.45890865E-02-5.94521966E-17-8.52703383E-16 1.78409858E-01-1.77721198E-17
 9  3 8.09829801E-16-7.20481749E-02-7.74807382E-18 3.86538910E-18 1.71281449E-02
 9  4 1.09506994E-17 3.86277122E-18-1.08749691E-02-1.20966042E-17-1.04366855E-17
 9  5 3.86988761E-03-3.49391343E-17-2.21268136E-17-5.74618118E-02 1.85809849E-17
 9  6-8.88906839E-18 9.59289692E-03-1.88055950E-17-1.06624759E-17 6.70083964E-03
10  1-7.81706645E-03 6.55815977E-04-1.41202187E-18 6.32275003E-03 4.59558789E-02
10  2 8.06624074E-18-1.69117188E-01 5.16487543E-03-1.77721198E-17 9.02203999E-01
10  3-1.03458483E-02-1.24998549E-17 1.03171908E-03 1.45661175E-03 3.75463970E-19
10  4-4.72211054E-04-3.28055354E-04 9.00894292E-20 2.79080828E-03 3.38277759E-04
10  5-2.57030172E-19 9.63679340E-03-3.88451326E-02 7.12418645E-19-3.78511595E-01
10  6 1.69366618E-01 3.78383142E-18-3.66067941E-01-1.73419024E-01-2.59559126E-18
11  1 6.55996967E-04 9.27075652E-03 8.62524191E-18 1.46492940E-02-4.12571323E-02
11  2-1.31677179E-17-1.02324794E-02-8.13388806E-01 8.09829801E-16-1.03458483E-02
11  3 1.23417392E+00 6.30406207E-16 1.21597763E-04 2.39243980E-05-1.39434586E-18
11  4 2.51900902E-04 2.53732149E-04-8.69145918E-19-2.06110598E-03 2.34224579E-03
11  5 4.99560172E-19 1.07772543E-02-1.38080083E-02 7.93180864E-18 1.74054940E-01
11  6-1.83506092E-01-3.11057710E-19-1.77871517E-01-1.94104539E-01 1.11887150E-18
12  1 1.76980330E-18-5.86360046E-18 3.18756662E-04 1.39998398E-17-1.69497704E-17
12  2 9.26796035E-03 9.72146179E-18-6.27941344E-16-7.20481749E-02-1.24998549E-17
12  3 6.30406207E-16 1.56592689E-01 5.63403702E-18-3.82434261E-18-4.28303365E-04
12  4-5.93674143E-18-4.45520311E-18 5.00237687E-04 9.54073869E-18 4.64646052E-18
12  5-7.86989213E-04-1.74127183E-17-1.25672259E-17 8.63712330E-03-1.24631883E-16
12  6 7.66355600E-17-5.03418994E-02 1.74669224E-17 1.27778433E-17-5.17114621E-02
13  1-3.78515018E-01 1.74019882E-01 9.80349042E-17 8.98791788E-03-9.96444377E-03
13  2-2.01130824E-17-9.56597889E-04-1.33035237E-03-7.74807382E-18 1.03171908E-03
13  3 1.21597763E-04 5.63403702E-18 3.79640427E-01-1.84366510E-01-1.87919555E-17
13  4-1.26993274E-02 2.12406493E-02-4.25499955E-18 2.00048932E-03 4.20568245E-04
13  5 8.76983925E-19 5.05207351E-04-2.65902122E-04 1.67250217E-18-1.68680661E-04
13  6-7.57721663E-05-1.67786812E-19 1.73831887E-04 2.00276061E-04-8.40903593E-20
14  1 1.69328946E-01-1.83473841E-01-5.91240028E-17 3.86355661E-02-1.20797710E-02
14  2 2.23835572E-17-2.18081685E-03-4.53115610E-03 3.86538910E-18 1.45661175E-03
14  3 2.39243980E-05-3.82434261E-18-1.84366510E-01 1.83623785E-01 1.37812808E-17
14  4-2.21919384E-02 1.46670627E-02 1.82790886E-18-2.46072921E-04 2.31422134E-03
14  5-6.30594953E-19-2.68834435E-04-3.19696219E-05-9.89967377E-19-7.58733395E-05
14  6-4.77807907E-04 9.66335050E-20-9.10926525E-05-3.44575925E-05 4.65760202E-20
15  1 5.01343861E-18 2.90164141E-18-5.03550467E-02 4.60324931E-18-1.83584583E-17
15  2 9.59825679E-03-6.05489818E-19 6.90185880E-19 1.71281449E-02 3.75463970E-19
15  3-1.39434586E-18-4.28303365E-04-1.87919555E-17 1.37812808E-17 3.33036273E-02
15  4 1.02383470E-17 5.90539956E-18 3.78088749E-03-4.65261884E-18-2.96536122E-18
15  5-1.16195067E-02 2.73964983E-18 1.84943836E-18-2.66391104E-04 1.94359277E-18
15  6-1.12143722E-18-1.90741253E-03-2.27864884E-18-1.33481354E-18 7.65765813E-04
16  1-3.66158506E-01-1.77980406E-01-1.26575033E-16 1.02560078E-02 8.52290755E-03
16  2 1.45713510E-17 2.47947515E-03 1.42224649E-03 1.09506994E-17-4.72211054E-04
16  3 2.51900902E-04-5.93674143E-18-1.26993274E-02-2.21919384E-02 1.02383470E-17
16  4 3.67241110E-01 1.89277753E-01-8.01313370E-18-4.49219264E-04 1.18287790E-03
16  5-3.93934698E-19-8.92890617E-05-2.48033922E-04-2.57038293E-18 1.73893020E-04
16  6-9.11515873E-05 2.11382575E-19-2.81936617E-04-1.46160238E-04 8.67730682E-20
17  1-1.73529522E-01-1.94171003E-01-8.07501132E-17-3.75854655E-02-1.29310137E-02
17  2 1.19307951E-17-7.02706765E-04 2.81263706E-03 3.86277122E-18-3.28055354E-04
17  3 2.53732149E-04-4.45520311E-18 2.12406493E-02 1.46670627E-02 5.90539956E-18
17  4 1.89277753E-01 1.94902507E-01-5.57279837E-18 1.34352708E-03-5.44591543E-03
17  5-2.69092248E-19 2.29640783E-04-9.37339779E-06-1.44775334E-18 2.00341341E-04
17  6-3.44749933E-05 1.23329825E-19-1.46143637E-04-4.41476117E-05 4.96148622E-20
18  1 1.22681541E-17 1.23956083E-17-5.16845448E-02 7.23781862E-19-6.94957763E-18
18  2 6.70027101E-03-9.43402614E-19 9.81398991E-20-1.08749691E-02 9.00894292E-20
18  3-8.69145918E-19 5.00237687E-04-4.25499955E-18 1.82790886E-18 3.78088749E-03
18  4-8.01313370E-18-5.57279837E-18 3.37064315E-02-1.81123216E-18-9.52058011E-19
18  5 1.73638732E-02 2.11448017E-18 1.48094275E-18 1.55107154E-05 1.21885623E-18
18  6-6.84504141E-19 7.65878358E-04-1.26396167E-18-7.48149563E-19-2.73544891E-04
19  1 9.64128257E-03 1.07825571E-02 2.37832710E-17-3.66284183E-01-1.73364453E-01
19  2-1.17550542E-16-1.98656393E-02-1.89644274E-02-1.20966042E-17 2.79080828E-03
19  3-2.06110598E-03 9.54073869E-18 2.00048932E-03-2.46072921E-04-4.65261884E-18
19  4-4.49219264E-04 1.34352708E-03-1.81123216E-18 3.74407311E-01 1.79209633E-01
19  5 1.88634191E-18-2.65716344E-03 3.33949529E-03 1.86672891E-18 5.05218935E-04
19  6-2.68966440E-04-2.48659614E-19-8.89185495E-05 2.29795891E-04-1.48705363E-19
20  1-3.88414127E-02-1.38062893E-02 1.74050879E-17-1.69260291E-01-1.82297398E-01
20  2-7.34209393E-17 2.41249416E-02 1.30713421E-02-1.04366855E-17 3.38277759E-04
20  3 2.34224579E-03 4.64646052E-18 4.20568245E-04 2.31422134E-03-2.96536122E-18
20  4 1.18287790E-03-5.44591543E-03-9.52058011E-19 1.79209633E-01 1.87115152E-01
20  5 4.47864744E-19 3.33961425E-03-3.25167757E-03 1.30680924E-18-2.66067274E-04
20  6-3.20445162E-05-1.68375630E-19-2.48156414E-04-9.61823310E-06-1.05044119E-19
21  1-5.89648937E-20 1.18509335E-18 8.63667107E-03-2.06223291E-20-3.20690639E-18
21  2-5.74379438E-02-2.03414289E-18 8.54179693E-19 3.86988761E-03-2.57030172E-19
21  3 4.99560172E-19-7.86989213E-04 8.76983925E-19-6.30594953E-19-1.16195067E-02
21  4-3.93934698E-19-2.69092248E-19 1.73638732E-02 1.88634191E-18 4.47864744E-19
21  5 3.76885206E-02-2.99517260E-19-2.71559933E-19 2.53632186E-03-3.41068335E-19
21  6 2.02564716E-19-2.66462894E-04 5.11904554E-19 2.96769725E-19 1.56153321E-05
22  1 2.79046251E-03-2.06091427E-03-1.36115653E-17-1.98587335E-02-1.89628328E-02
22  2 5.05412823E-18-3.66193742E-01-1.73265401E-01-3.49391343E-17 9.63679340E-03
22  3 1.07772543E-02-1.74127183E-17 5.05207351E-04-2.68834435E-04 2.73964983E-18
22  4-8.92890617E-05 2.29640783E-04 2.11448017E-18-2.65716344E-03 3.33961425E-03
22  5-2.99517260E-19 3.74314171E-01 1.79113489E-01-2.46338466E-17 2.00012690E-03
22  6-2.45724962E-04 4.71005202E-19-4.47846605E-04 1.34369117E-03 1.04971673E-19
23  1 3.37455000E-04 2.34218875E-03-6.99172865E-18 2.41213964E-02 1.30706089E-02
23  2 1.93651160E-18-1.69156789E-01-1.82241095E-01-2.21268136E-17-3.88451326E-02
23  3-1.38080083E-02-1.25672259E-17-2.65902122E-04-3.19696219E-05 1.84943836E-18
23  4-2.48033922E-04-9.37339779E-06 1.48094275E-18 3.33949529E-03-3.25167757E-03
23  5-2.71559933E-19 1.79113489E-01 1.87062455E-01-1.55549317E-17 4.21090624E-04
23  6 2.31391958E-03 1.83935631E-19 1.18291564E-03-5.44702980E-03 1.42464941E-19
24  1 9.76705762E-19-1.23062801E-18-7.86791387E-04 3.54077212E-18-7.41937281E-19
24  2 3.86756771E-03 1.92668158E-17 7.72062787E-18-5.74618118E-02 7.12418645E-19
24  3 7.93180864E-18 8.63712330E-03 1.67250217E-18-9.89967377E-19-2.66391104E-04
24  4-2.57038293E-18-1.44775334E-18 1.55107154E-05 1.86672891E-18 1.30680924E-18
24  5 2.53632186E-03-2.46338466E-17-1.55549317E-17 3.77136351E-02-2.85287021E-18
24  6 1.80940024E-18-1.16173548E-02 2.05692177E-18 1.17464125E-18 1.73621776E-02
25  1 1.03191063E-03 1.21515207E-04-7.45960448E-18-9.57601047E-04-1.32994010E-03
25  2 3.71484629E-18 8.99079914E-03-9.96680768E-03 1.85809849E-17-3.78511595E-01
25  3 1.74054940E-01-1.24631883E-16-1.68680661E-04-7.58733395E-05 1.94359277E-18
25  4 1.73893020E-04 2.00341341E-04 1.21885623E-18 5.05218935E-04-2.66067274E-04
25  5-3.41068335E-19 2.00012690E-03 4.21090624E-04-2.85287021E-18 3.79634107E-01
25  6-1.84399027E-01-2.94256300E-18-1.26982109E-02 2.12398214E-02-5.15860842E-20
26  1 1.45644128E-03 2.39218583E-05 4.14480308E-18-2.18067990E-03-4.53018547E-03
26  2-2.76090435E-18 3.86277342E-02-1.20737001E-02-8.88906839E-18 1.69366618E-01
26  3-1.83506092E-01 7.66355600E-17-7.57721663E-05-4.77807907E-04-1.12143722E-18
26  4-9.11515873E-05-3.44749933E-05-6.84504141E-19-2.68966440E-04-3.20445162E-05
26  5 2.02564716E-19-2.45724962E-04 2.31391958E-03 1.80940024E-18-1.84399027E-01
26  6 1.83650352E-01 1.67717246E-18-2.21894874E-02 1.46661022E-02 9.93285911E-21
27  1-6.85783023E-20 3.13309568E-19-4.28754063E-04 5.32107782E-20-9.87650248E-20
27  2 1.71275922E-02-2.67520302E-19-1.30616312E-18 9.59289692E-03 3.78383142E-18
27  3-3.11057710E-19-5.03418994E-02-1.67786812E-19 9.66335050E-20-1.90741253E-03
27  4 2.11382575E-19 1.23329825E-19 7.65878358E-04-2.48659614E-19-1.68375630E-19
27  5-2.66462894E-04 4.71005202E-19 1.83935631E-19-1.16173548E-02-2.94256300E-18
27  6 1.67717246E-18 3.32957972E-02-6.11624478E-19-4.69995280E-19 3.77974053E-03
28  1-4.71949841E-04 2.52021783E-04 8.91854062E-18 2.47910768E-03 1.42296178E-03
28  2-3.45797772E-18 1.02508605E-02 8.51761595E-03-1.88055950E-17-3.66067941E-01
28  3-1.77871517E-01 1.74669224E-17 1.73831887E-04-9.10926525E-05-2.27864884E-18
28  4-2.81936617E-04-1.46143637E-04-1.26396167E-18-8.89185495E-05-2.48156414E-04
28  5 5.11904554E-19-4.47846605E-04 1.18291564E-03 2.05692177E-18-1.26982109E-02
28  6-2.21894874E-02-6.11624478E-19 3.67153000E-01 1.89170877E-01 2.93306464E-18
29  1-3.27718346E-04 2.53827864E-04 5.06248077E-18-7.02961421E-04 2.81200348E-03
29  2-3.70717720E-18-3.75885790E-02-1.29330099E-02-1.06624759E-17-1.73419024E-01
29  3-1.94104539E-01 1.27778433E-17 2.00276061E-04-3.44575925E-05-1.33481354E-18
29  4-1.46160238E-04-4.41476117E-05-7.48149563E-19 2.29795891E-04-9.61823310E-06
29  5 2.96769725E-19 1.34369117E-03-5.44702980E-03 1.17464125E-18 2.12398214E-02
29  6 1.46661022E-02-4.69995280E-19 1.89170877E-01 1.94840879E-01 2.57217625E-18
30  1-1.11562357E-20 1.82739934E-19 5.00384269E-04 9.05848289E-20-4.02551623E-19
30  2-1.08737483E-02-2.76984420E-19-3.38070611E-18 6.70083964E-03-2.59559126E-18
30  3 1.11887150E-18-5.17114621E-02-8.40903593E-20 4.65760202E-20 7.65765813E-04
30  4 8.67730682E-20 4.96148622E-20-2.73544891E-04-1.48705363E-19-1.05044119E-19
30  5 1.56153321E-05 1.04971673E-19 1.42464941E-19 1.73621776E-02-5.15860842E-20
30  6 9.93285911E-21 3.77974053E-03 2.93306464E-18 2.57217625E-18 3.37342630E-02
 $END
 $DIPDR
 -2.77884991E-01 6.56964739E-01 0.00000000E+00
  1.02506481E-01-6.88824442E-01 0.00000000E+00
  0.00000000E+00 0.00000000E+00-9.11376944E-01
  3.82912075E-01-1.12917910E+00 0.00000000E+00
 -1.68532323E-02-2.97221210E-01 0.00000000E+00
  0.00000000E+00 0.00000000E+00-2.43555231E-01
  3.82866763E-01-1.12854470E+00 0.00000000E+00
 -1.62107669E-02-2.97292066E-01 0.00000000E+00
  0.00000000E+00 0.00000000E+00-2.43554034E-01
 -2.77746427E-01 6.57171808E-01 0.00000000E+00
  1.02810019E-01-6.88592484E-01 0.00000000E+00
  0.00000000E+00 0.00000000E+00-9.11366707E-01
  1.37555377E-01-5.36605826E-01 0.00000000E+00
  7.09144486E-03 3.41639905E-01 0.00000000E+00
  0.00000000E+00 0.00000000E+00 4.06114759E-01
 -1.13863049E-01 4.92237445E-01 0.00000000E+00
 -6.28740694E-02 4.96722419E-01 0.00000000E+00
  0.00000000E+00 0.00000000E+00 4.19394482E-01
 -1.28602203E-01 5.16387615E-01 0.00000000E+00
 -3.00635403E-02 1.47785017E-01 0.00000000E+00
  0.00000000E+00 0.00000000E+00 3.29452187E-01
 -1.28780184E-01 5.16315264E-01 0.00000000E+00
 -3.02693227E-02 1.47601818E-01 0.00000000E+00
  0.00000000E+00 0.00000000E+00 3.29420773E-01
  1.37634486E-01-5.36721850E-01 0.00000000E+00
  6.88955651E-03 3.41815011E-01 0.00000000E+00
  0.00000000E+00 0.00000000E+00 4.06140546E-01
 -1.14068685E-01 4.92018837E-01 0.00000000E+00
 -6.30320544E-02 4.96379808E-01 0.00000000E+00
  0.00000000E+00 0.00000000E+00 4.19332063E-01
 $END
