 $CONTRL  scftyp=mcscf $END
 $basis gbasis=n31 ngauss=6 ndfunc=1 $end

!!!Обратите внимание на перестановку МО!! В активное пространство включены 4 pi-МО
 $Guess guess=moread norb=20 norder=1 iorder(17)=19,17,18  prtmo=.t. $end
!!!Обратите внимание на перестановку МО!!

 $dEt group=cs  ncore=13 nact=4 neLs=4 SZ=0 nstate=1 $end
 $scf dirscf=.t. $end
 $DATA
 C4H6
Cs

CARBON      6.0     -0.557821218         0.000000000        -0.735585251
CARBON      6.0      0.522875525         0.000000000        -1.534457092
HYDROGEN    1.0     -1.539857539         0.000000000        -1.205481564
HYDROGEN    1.0      1.535769363         0.000000000        -1.143052878
HYDROGEN    1.0      0.420180565         0.000000000        -2.614099451
 $END
--- CLOSED SHELL ORBITALS --- GENERATED AT Thu Nov 16 14:24:09 2023
 C4H6                                                                           
E(RHF)=     -154.9117624674, E(NUC)=  104.5079680865,   10 ITERS
 $VEC   
 1  1 7.01652392E-01 1.93580767E-02-1.67996419E-06 0.00000000E+00-7.07276613E-05
 1  2-6.16773605E-03-4.21141977E-04 0.00000000E+00-5.22754404E-04-1.35739196E-03
 1  3-1.77207394E-03-1.62535139E-03 0.00000000E+00 1.21915341E-04 0.00000000E+00
 1  4 7.01652392E-01 1.93580767E-02-1.67996419E-06 0.00000000E+00 7.07276613E-05
 1  5-6.16773605E-03-4.21141977E-04 0.00000000E+00 5.22754404E-04-1.35739196E-03
 1  6-1.77207394E-03-1.62535139E-03 0.00000000E+00-1.21915341E-04 0.00000000E+00
 1  7 5.58760102E-02 1.23995520E-03 9.38541774E-05 0.00000000E+00 1.26090759E-04
 1  8 2.16814885E-03-6.86705316E-04 0.00000000E+00-1.01959636E-03-2.61000191E-04
 1  9-2.27917382E-04-2.44621517E-04 0.00000000E+00 2.60163375E-05 0.00000000E+00
 1 10 5.58760102E-02 1.23995520E-03 9.38541774E-05 0.00000000E+00-1.26090759E-04
 1 11 2.16814885E-03-6.86705316E-04 0.00000000E+00 1.01959636E-03-2.61000191E-04
 1 12-2.27917382E-04-2.44621517E-04 0.00000000E+00-2.60163375E-05 0.00000000E+00
 1 13-1.49171416E-04 1.27565054E-03-1.49171416E-04 1.27565054E-03-1.06172842E-04
 1 14-9.93299326E-05-1.06172842E-04-9.93299326E-05-1.31747419E-05 2.89446528E-04
 1 15-1.31747419E-05 2.89446528E-04
 2  1 7.01465184E-01 1.93047945E-02 6.62212274E-05 0.00000000E+00-2.65073094E-04
 2  2-1.19251366E-02-1.37584071E-03 0.00000000E+00 1.69510070E-03-1.01356729E-03
 2  3-1.53411568E-03-6.15376033E-04 0.00000000E+00 2.81087449E-04 0.00000000E+00
 2  4-7.01465184E-01-1.93047945E-02-6.62212274E-05 0.00000000E+00-2.65073094E-04
 2  5 1.19251366E-02 1.37584071E-03 0.00000000E+00 1.69510070E-03 1.01356729E-03
 2  6 1.53411568E-03 6.15376033E-04 0.00000000E+00 2.81087449E-04 0.00000000E+00
 2  7 6.14831027E-02 1.54254054E-03 1.25565500E-04 0.00000000E+00 4.05906916E-05
 2  8 2.98344197E-03-7.41495126E-04 0.00000000E+00-1.20534615E-03-4.49884046E-04
 2  9-1.61329954E-04-2.94975078E-04 0.00000000E+00-2.91426283E-05 0.00000000E+00
 2 10-6.14831027E-02-1.54254054E-03-1.25565500E-04 0.00000000E+00 4.05906916E-05
 2 11-2.98344197E-03 7.41495126E-04 0.00000000E+00-1.20534615E-03 4.49884046E-04
 2 12 1.61329954E-04 2.94975078E-04 0.00000000E+00-2.91426283E-05 0.00000000E+00
 2 13-6.38048402E-05 1.07722979E-03 6.38048402E-05-1.07722979E-03-7.96049884E-05
 2 14-1.80539332E-04 7.96049884E-05 1.80539332E-04-3.67648202E-05 1.34987842E-04
 2 15 3.67648202E-05-1.34987842E-04
 3  1-6.19433003E-02-1.83894724E-03-1.23404956E-04 0.00000000E+00-9.13932370E-05
 3  2 4.09443887E-03 1.23987046E-03 0.00000000E+00 6.13112359E-04-1.30311177E-04
 3  3 1.00540678E-04-2.31636783E-04 0.00000000E+00-2.90403320E-05 0.00000000E+00
 3  4 6.19433003E-02 1.83894724E-03 1.23404956E-04 0.00000000E+00-9.13932370E-05
 3  5-4.09443887E-03-1.23987046E-03 0.00000000E+00 6.13112359E-04 1.30311177E-04
 3  6-1.00540678E-04 2.31636783E-04 0.00000000E+00-2.90403320E-05 0.00000000E+00
 3  7 7.01328529E-01 1.93562453E-02-7.26913302E-07 0.00000000E+00-5.70356344E-05
 3  8-8.79951818E-03 3.35079114E-04 0.00000000E+00 6.10137260E-04-1.19045972E-03
 3  9-1.73515223E-03-1.26957392E-03 0.00000000E+00 1.57835006E-04 0.00000000E+00
 3 10-7.01328529E-01-1.93562453E-02 7.26913302E-07 0.00000000E+00-5.70356344E-05
 3 11 8.79951818E-03-3.35079114E-04 0.00000000E+00 6.10137260E-04 1.19045972E-03
 3 12 1.73515223E-03 1.26957392E-03 0.00000000E+00 1.57835006E-04 0.00000000E+00
 3 13-2.27809396E-05-1.99032417E-04 2.27809396E-05 1.99032417E-04-8.33950946E-05
 3 14 1.80312300E-03 8.33950946E-05-1.80312300E-03-1.05095900E-04 1.39332137E-03
 3 15 1.05095900E-04-1.39332137E-03
 4  1-5.63194806E-02-1.82185448E-03-1.63385917E-04 0.00000000E+00-7.02802784E-05
 4  2 3.17680814E-03 9.61842395E-04 0.00000000E+00 7.35098205E-04-8.64142782E-05
 4  3 6.83073748E-05-3.42301499E-05 0.00000000E+00-4.88945071E-05 0.00000000E+00
 4  4-5.63194806E-02-1.82185448E-03-1.63385917E-04 0.00000000E+00 7.02802784E-05
 4  5 3.17680814E-03 9.61842395E-04 0.00000000E+00-7.35098205E-04-8.64142782E-05
 4  6 6.83073748E-05-3.42301499E-05 0.00000000E+00 4.88945071E-05 0.00000000E+00
 4  7 7.01780801E-01 1.93298955E-02-3.83862414E-05 0.00000000E+00 9.03585718E-06
 4  8-8.13524461E-03 4.96525821E-04 0.00000000E+00 2.11781741E-04-1.21929494E-03
 4  9-1.79547402E-03-1.33878036E-03 0.00000000E+00 1.55905587E-04 0.00000000E+00
 4 10 7.01780801E-01 1.93298955E-02-3.83862414E-05 0.00000000E+00-9.03585718E-06
 4 11-8.13524461E-03 4.96525821E-04 0.00000000E+00-2.11781741E-04-1.21929494E-03
 4 12-1.79547402E-03-1.33878036E-03 0.00000000E+00-1.55905587E-04 0.00000000E+00
 4 13-2.17365324E-05-5.24801768E-05-2.17365324E-05-5.24801768E-05-1.14630954E-04
 4 14 1.33891081E-03-1.14630954E-04 1.33891081E-03-9.05705630E-05 1.53375059E-03
 4 15-9.05705630E-05 1.53375059E-03
 5  1-1.31021105E-01 2.51491739E-01 4.56670971E-02 0.00000000E+00-2.50731500E-02
 5  2 1.70993097E-01-7.75466956E-04 0.00000000E+00-5.57254377E-03 6.84162287E-03
 5  3-1.11072928E-02 1.29313010E-02 0.00000000E+00 2.80286724E-03 0.00000000E+00
 5  4-1.31021105E-01 2.51491739E-01 4.56670971E-02 0.00000000E+00 2.50731500E-02
 5  5 1.70993097E-01-7.75466956E-04 0.00000000E+00 5.57254377E-03 6.84162287E-03
 5  6-1.11072928E-02 1.29313010E-02 0.00000000E+00-2.80286724E-03 0.00000000E+00
 5  7-9.11566656E-02 1.72182988E-01-5.60518730E-02 0.00000000E+00-5.14216455E-02
 5  8 1.28758990E-01-5.57951779E-03 0.00000000E+00-6.54191128E-03 7.32320276E-03
 5  9-7.52509379E-03 5.63214896E-03 0.00000000E+00 5.57399209E-03 0.00000000E+00
 5 10-9.11566656E-02 1.72182988E-01-5.60518730E-02 0.00000000E+00 5.14216455E-02
 5 11 1.28758990E-01-5.57951779E-03 0.00000000E+00 6.54191128E-03 7.32320276E-03
 5 12-7.52509379E-03 5.63214896E-03 0.00000000E+00-5.57399209E-03 0.00000000E+00
 5 13 6.33114436E-02 9.28234206E-03 6.33114436E-02 9.28234206E-03 4.58396385E-02
 5 14 8.54850106E-03 4.58396385E-02 8.54850106E-03 4.09294764E-02 6.30374505E-03
 5 15 4.09294764E-02 6.30374505E-03
 6  1-8.90703675E-02 1.72552355E-01 6.52949434E-02 0.00000000E+00 1.10315271E-01
 6  2 1.27669581E-01-1.05317957E-02 0.00000000E+00 2.43023365E-02 1.12202915E-02
 6  3-5.92744143E-03-4.44308538E-03 0.00000000E+00 6.94036462E-03 0.00000000E+00
 6  4 8.90703675E-02-1.72552355E-01-6.52949434E-02 0.00000000E+00 1.10315271E-01
 6  5-1.27669581E-01 1.05317957E-02 0.00000000E+00 2.43023365E-02-1.12202915E-02
 6  6 5.92744143E-03 4.44308538E-03 0.00000000E+00 6.94036462E-03 0.00000000E+00
 6  7-1.26058395E-01 2.38873933E-01-6.03980308E-02 0.00000000E+00-2.98539287E-02
 6  8 2.08846446E-01-2.37466177E-03 0.00000000E+00-5.93215457E-03 1.07450053E-02
 6  9-1.04308690E-02 8.05332950E-03 0.00000000E+00 3.88464309E-03 0.00000000E+00
 6 10 1.26058395E-01-2.38873933E-01 6.03980308E-02 0.00000000E+00-2.98539287E-02
 6 11-2.08846446E-01 2.37466177E-03 0.00000000E+00-5.93215457E-03-1.07450053E-02
 6 12 1.04308690E-02-8.05332950E-03 0.00000000E+00 3.88464309E-03 0.00000000E+00
 6 13 5.50912553E-02 6.45325502E-03-5.50912553E-02-6.45325502E-03 6.76806283E-02
 6 14 9.51465056E-03-6.76806283E-02-9.51465056E-03 7.73850838E-02 2.02135208E-02
 6 15-7.73850838E-02-2.02135208E-02
 7  1 7.36521700E-02-1.46348043E-01 1.27346011E-01 0.00000000E+00 1.37787694E-01
 7  2-1.31360151E-01 4.40983232E-02 0.00000000E+00 3.40410842E-02-1.78787526E-03
 7  3 6.79998761E-03-1.32646963E-02 0.00000000E+00 7.33928548E-03 0.00000000E+00
 7  4 7.36521700E-02-1.46348043E-01 1.27346011E-01 0.00000000E+00-1.37787694E-01
 7  5-1.31360151E-01 4.40983232E-02 0.00000000E+00-3.40410842E-02-1.78787526E-03
 7  6 6.79998761E-03-1.32646963E-02 0.00000000E+00-7.33928548E-03 0.00000000E+00
 7  7-1.02931390E-01 1.99299240E-01 5.41113843E-02 0.00000000E+00 4.08650803E-02
 7  8 1.84704284E-01 2.34391572E-02 0.00000000E+00 1.98036093E-02 8.47449627E-03
 7  9-8.96924011E-03 1.05787995E-02 0.00000000E+00-6.58047649E-03 0.00000000E+00
 7 10-1.02931390E-01 1.99299240E-01 5.41113843E-02 0.00000000E+00-4.08650803E-02
 7 11 1.84704284E-01 2.34391572E-02 0.00000000E+00-1.98036093E-02 8.47449627E-03
 7 12-8.96924011E-03 1.05787995E-02 0.00000000E+00 6.58047649E-03 0.00000000E+00
 7 13-8.53846602E-02-3.32061683E-02-8.53846602E-02-3.32061683E-02 1.02653739E-01
 7 14 4.59554461E-02 1.02653739E-01 4.59554461E-02 9.96378451E-02 3.99629947E-02
 7 15 9.96378451E-02 3.99629947E-02
 8  1 8.52832454E-02-1.69704074E-01 7.38917578E-02 0.00000000E+00-1.02308082E-01
 8  2-1.63418556E-01 7.09019525E-02 0.00000000E+00-2.75706563E-02-1.29888510E-02
 8  3 6.03859468E-03 3.93738536E-03 0.00000000E+00 8.08816336E-03 0.00000000E+00
 8  4-8.52832454E-02 1.69704074E-01-7.38917578E-02 0.00000000E+00-1.02308082E-01
 8  5 1.63418556E-01-7.09019525E-02 0.00000000E+00-2.75706563E-02 1.29888510E-02
 8  6-6.03859468E-03-3.93738536E-03 0.00000000E+00 8.08816336E-03 0.00000000E+00
 8  7-6.08009037E-02 1.18614614E-01 1.83075193E-01 0.00000000E+00 8.09491857E-02
 8  8 1.17411272E-01 7.14049016E-02 0.00000000E+00 4.37627308E-02 4.16849091E-03
 8  9-5.79667889E-03 1.13258147E-02 0.00000000E+00-1.31486402E-02 0.00000000E+00
 8 10 6.08009037E-02-1.18614614E-01-1.83075193E-01 0.00000000E+00 8.09491857E-02
 8 11-1.17411272E-01-7.14049016E-02 0.00000000E+00 4.37627308E-02-4.16849091E-03
 8 12 5.79667889E-03-1.13258147E-02 0.00000000E+00-1.31486402E-02 0.00000000E+00
 8 13-1.35777982E-01-6.10297282E-02 1.35777982E-01 6.10297282E-02 1.28957092E-01
 8 14 7.10803905E-02-1.28957092E-01-7.10803905E-02 9.14038183E-02 4.65375873E-02
 8 15-9.14038183E-02-4.65375873E-02
 9  1 6.61980368E-03-1.74306447E-02-1.82397359E-01 0.00000000E+00 1.77065412E-01
 9  2-6.29246533E-03-7.01560327E-02 0.00000000E+00 5.97515604E-02 8.90040463E-03
 9  3-5.32416972E-04-4.43338341E-03 0.00000000E+00-2.83927732E-03 0.00000000E+00
 9  4 6.61980368E-03-1.74306447E-02-1.82397359E-01 0.00000000E+00-1.77065412E-01
 9  5-6.29246533E-03-7.01560327E-02 0.00000000E+00-5.97515604E-02 8.90040463E-03
 9  6-5.32416972E-04-4.43338341E-03 0.00000000E+00 2.83927732E-03 0.00000000E+00
 9  7-1.04772540E-02 1.91509808E-02-7.98266586E-02 0.00000000E+00 2.06239406E-01
 9  8 3.36282503E-02-3.55562259E-02 0.00000000E+00 8.21477984E-02-5.41143666E-03
 9  9-1.09760899E-03 8.69143522E-03 0.00000000E+00-1.56104731E-03 0.00000000E+00
 9 10-1.04772540E-02 1.91509808E-02-7.98266586E-02 0.00000000E+00-2.06239406E-01
 9 11 3.36282503E-02-3.55562259E-02 0.00000000E+00-8.21477984E-02-5.41143666E-03
 9 12-1.09760899E-03 8.69143522E-03 0.00000000E+00 1.56104731E-03 0.00000000E+00
 9 13 1.29638233E-01 8.88648028E-02 1.29638233E-01 8.88648028E-02-7.57629501E-02
 9 14-5.06461284E-02-7.57629501E-02-5.06461284E-02 1.29152618E-01 8.29753278E-02
 9 15 1.29152618E-01 8.29753278E-02
10  1 1.09124858E-02-2.15996757E-02-2.05734775E-01 0.00000000E+00-2.00736759E-01
10  2-7.20093164E-03-8.21123369E-02 0.00000000E+00-6.56291517E-02 2.29882818E-04
10  3-1.86575556E-04 5.67312185E-03 0.00000000E+00-7.55302530E-03 0.00000000E+00
10  4 1.09124858E-02-2.15996757E-02-2.05734775E-01 0.00000000E+00 2.00736759E-01
10  5-7.20093164E-03-8.21123369E-02 0.00000000E+00 6.56291517E-02 2.29882818E-04
10  6-1.86575556E-04 5.67312185E-03 0.00000000E+00 7.55302530E-03 0.00000000E+00
10  7 1.41268312E-03-6.96213969E-03 2.81582445E-01 0.00000000E+00 9.44943105E-02
10  8 3.06708469E-02 1.11024441E-01 0.00000000E+00 2.07476702E-02 6.64482362E-03
10  9-1.58609462E-03 3.79553752E-03 0.00000000E+00-1.71912985E-02 0.00000000E+00
10 10 1.41268312E-03-6.96213969E-03 2.81582445E-01 0.00000000E+00-9.44943105E-02
10 11 3.06708469E-02 1.11024441E-01 0.00000000E+00-2.07476702E-02 6.64482362E-03
10 12-1.58609462E-03 3.79553752E-03 0.00000000E+00 1.71912985E-02 0.00000000E+00
10 13 5.12785544E-02 3.87649317E-02 5.12785544E-02 3.87649317E-02 1.43640403E-01
10 14 1.07684383E-01 1.43640403E-01 1.07684383E-01 4.16526743E-02 3.71570814E-02
10 15 4.16526743E-02 3.71570814E-02
11  1 1.79613155E-02-4.03158256E-02-1.76499264E-01 0.00000000E+00-3.73994613E-03
11  2-1.25170226E-02-5.77245119E-02 0.00000000E+00-1.37003024E-02-2.74464171E-03
11  3-2.56771731E-04 9.13653840E-03 0.00000000E+00-1.26311877E-02 0.00000000E+00
11  4-1.79613155E-02 4.03158256E-02 1.76499264E-01 0.00000000E+00-3.73994613E-03
11  5 1.25170226E-02 5.77245119E-02 0.00000000E+00-1.37003024E-02 2.74464171E-03
11  6 2.56771731E-04-9.13653840E-03 0.00000000E+00-1.26311877E-02 0.00000000E+00
11  7 1.07160597E-02-2.22427105E-02-2.26514648E-02 0.00000000E+00 3.06108334E-01
11  8-1.90721044E-02-2.81761363E-02 0.00000000E+00 1.45427038E-01-1.36118733E-02
11  9-1.79297702E-04 1.91374634E-02 0.00000000E+00-4.78254125E-03 0.00000000E+00
11 10-1.07160597E-02 2.22427105E-02 2.26514648E-02 0.00000000E+00 3.06108334E-01
11 11 1.90721044E-02 2.81761363E-02 0.00000000E+00 1.45427038E-01 1.36118733E-02
11 12 1.79297702E-04-1.91374634E-02 0.00000000E+00-4.78254125E-03 0.00000000E+00
11 13 8.09178897E-02 7.15983445E-02-8.09178897E-02-7.15983445E-02-8.76029814E-02
11 14-5.34191463E-02 8.76029814E-02 5.34191463E-02 1.84103010E-01 1.39020231E-01
11 15-1.84103010E-01-1.39020231E-01
12  1-1.15071423E-02 2.05452978E-02-2.44487672E-01 0.00000000E+00-1.78254319E-02
12  2 4.52502654E-02-1.40084838E-01 0.00000000E+00 2.91993553E-02 1.58035194E-02
12  3-1.68510759E-03-7.26971536E-03 0.00000000E+00-2.40072551E-02 0.00000000E+00
12  4 1.15071423E-02-2.05452978E-02 2.44487672E-01 0.00000000E+00-1.78254319E-02
12  5-4.52502654E-02 1.40084838E-01 0.00000000E+00 2.91993553E-02-1.58035194E-02
12  6 1.68510759E-03 7.26971536E-03 0.00000000E+00-2.40072551E-02 0.00000000E+00
12  7 1.61741494E-02-3.46161973E-02 2.57920149E-01 0.00000000E+00-3.27784682E-02
12  8-2.18434653E-02 1.33182183E-01 0.00000000E+00-4.43681378E-02 1.75245044E-02
12  9 9.37537034E-05-1.10893160E-02 0.00000000E+00-1.35506218E-02 0.00000000E+00
12 10-1.61741494E-02 3.46161973E-02-2.57920149E-01 0.00000000E+00-3.27784682E-02
12 11 2.18434653E-02-1.33182183E-01 0.00000000E+00-4.43681378E-02-1.75245044E-02
12 12-9.37537034E-05 1.10893160E-02 0.00000000E+00-1.35506218E-02 0.00000000E+00
12 13 1.68569848E-01 1.35457839E-01-1.68569848E-01-1.35457839E-01 1.55794813E-01
12 14 1.28742325E-01-1.55794813E-01-1.28742325E-01-5.95019955E-02-4.00455377E-02
12 15 5.95019955E-02 4.00455377E-02
13  1 1.41557705E-02-3.33810157E-02-8.91829048E-02 0.00000000E+00 2.83058753E-01
13  2-3.74678411E-02-6.63309647E-02 0.00000000E+00 1.38517589E-01 2.35653272E-02
13  3 8.50525401E-05-2.05788828E-02 0.00000000E+00-6.16166739E-03 0.00000000E+00
13  4 1.41557705E-02-3.33810157E-02-8.91829048E-02 0.00000000E+00-2.83058753E-01
13  5-3.74678411E-02-6.63309647E-02 0.00000000E+00-1.38517589E-01 2.35653272E-02
13  6 8.50525401E-05-2.05788828E-02 0.00000000E+00 6.16166739E-03 0.00000000E+00
13  7-2.89118863E-03 5.67352147E-03 6.20480380E-02 0.00000000E+00-1.99495753E-01
13  8 3.19989159E-03 4.36444000E-02 0.00000000E+00-1.24911148E-01 2.13050202E-02
13  9 1.76533179E-06-2.35803067E-02 0.00000000E+00-4.64033723E-03 0.00000000E+00
13 10-2.89118863E-03 5.67352147E-03 6.20480380E-02 0.00000000E+00 1.99495753E-01
13 11 3.19989159E-03 4.36444000E-02 0.00000000E+00 1.24911148E-01 2.13050202E-02
13 12 1.76533179E-06-2.35803067E-02 0.00000000E+00 4.64033723E-03 0.00000000E+00
13 13 1.32528105E-01 1.18165011E-01 1.32528105E-01 1.18165011E-01 1.09271281E-01
13 14 1.01220624E-01 1.09271281E-01 1.01220624E-01-1.48197526E-01-1.25118822E-01
13 15-1.48197526E-01-1.25118822E-01
14  1 0.00000000E+00 0.00000000E+00 0.00000000E+00 2.94754331E-01 0.00000000E+00
14  2 0.00000000E+00 0.00000000E+00 2.07138756E-01 0.00000000E+00 0.00000000E+00
14  3 0.00000000E+00 0.00000000E+00 1.24298293E-02 0.00000000E+00-1.81663350E-03
14  4 0.00000000E+00 0.00000000E+00 0.00000000E+00 2.94754331E-01 0.00000000E+00
14  5 0.00000000E+00 0.00000000E+00 2.07138756E-01 0.00000000E+00 0.00000000E+00
14  6 0.00000000E+00 0.00000000E+00 1.24298293E-02 0.00000000E+00 1.81663350E-03
14  7 0.00000000E+00 0.00000000E+00 0.00000000E+00 2.20985327E-01 0.00000000E+00
14  8 0.00000000E+00 0.00000000E+00 1.69114120E-01 0.00000000E+00 0.00000000E+00
14  9 0.00000000E+00 0.00000000E+00-1.40099785E-02 0.00000000E+00-1.11982392E-02
14 10 0.00000000E+00 0.00000000E+00 0.00000000E+00 2.20985327E-01 0.00000000E+00
14 11 0.00000000E+00 0.00000000E+00 1.69114120E-01 0.00000000E+00 0.00000000E+00
14 12 0.00000000E+00 0.00000000E+00-1.40099785E-02 0.00000000E+00 1.11982392E-02
14 13 0.00000000E+00 0.00000000E+00 0.00000000E+00 0.00000000E+00 0.00000000E+00
14 14 0.00000000E+00 0.00000000E+00 0.00000000E+00 0.00000000E+00 0.00000000E+00
14 15 0.00000000E+00 0.00000000E+00
15  1 0.00000000E+00 0.00000000E+00 0.00000000E+00 2.36256105E-01 0.00000000E+00
15  2 0.00000000E+00 0.00000000E+00 2.17754725E-01 0.00000000E+00 0.00000000E+00
15  3 0.00000000E+00 0.00000000E+00 1.49139048E-02 0.00000000E+00 2.00679877E-02
15  4 0.00000000E+00 0.00000000E+00 0.00000000E+00-2.36256105E-01 0.00000000E+00
15  5 0.00000000E+00 0.00000000E+00-2.17754725E-01 0.00000000E+00 0.00000000E+00
15  6 0.00000000E+00 0.00000000E+00-1.49139048E-02 0.00000000E+00 2.00679877E-02
15  7 0.00000000E+00 0.00000000E+00 0.00000000E+00 3.06727864E-01 0.00000000E+00
15  8 0.00000000E+00 0.00000000E+00 2.68491283E-01 0.00000000E+00 0.00000000E+00
15  9 0.00000000E+00 0.00000000E+00-1.41405641E-02 0.00000000E+00-9.00027689E-03
15 10 0.00000000E+00 0.00000000E+00 0.00000000E+00-3.06727864E-01 0.00000000E+00
15 11 0.00000000E+00 0.00000000E+00-2.68491283E-01 0.00000000E+00 0.00000000E+00
15 12 0.00000000E+00 0.00000000E+00 1.41405641E-02 0.00000000E+00-9.00027689E-03
15 13 0.00000000E+00 0.00000000E+00 0.00000000E+00 0.00000000E+00 0.00000000E+00
15 14 0.00000000E+00 0.00000000E+00 0.00000000E+00 0.00000000E+00 0.00000000E+00
15 15 0.00000000E+00 0.00000000E+00
16  1 0.00000000E+00 0.00000000E+00 0.00000000E+00-2.17448641E-01 0.00000000E+00
16  2 0.00000000E+00 0.00000000E+00-3.62991771E-01 0.00000000E+00 0.00000000E+00
16  3 0.00000000E+00 0.00000000E+00 1.74914496E-02 0.00000000E+00 2.26451086E-02
16  4 0.00000000E+00 0.00000000E+00 0.00000000E+00-2.17448641E-01 0.00000000E+00
16  5 0.00000000E+00 0.00000000E+00-3.62991771E-01 0.00000000E+00 0.00000000E+00
16  6 0.00000000E+00 0.00000000E+00 1.74914496E-02 0.00000000E+00-2.26451086E-02
16  7 0.00000000E+00 0.00000000E+00 0.00000000E+00 2.76586409E-01 0.00000000E+00
16  8 0.00000000E+00 0.00000000E+00 5.05802295E-01 0.00000000E+00 0.00000000E+00
16  9 0.00000000E+00 0.00000000E+00 9.32613067E-03 0.00000000E+00 8.16908990E-03
16 10 0.00000000E+00 0.00000000E+00 0.00000000E+00 2.76586409E-01 0.00000000E+00
16 11 0.00000000E+00 0.00000000E+00 5.05802295E-01 0.00000000E+00 0.00000000E+00
16 12 0.00000000E+00 0.00000000E+00 9.32613067E-03 0.00000000E+00-8.16908990E-03
16 13 0.00000000E+00 0.00000000E+00 0.00000000E+00 0.00000000E+00 0.00000000E+00
16 14 0.00000000E+00 0.00000000E+00 0.00000000E+00 0.00000000E+00 0.00000000E+00
16 15 0.00000000E+00 0.00000000E+00
17  1 4.09419552E-02-4.05739998E-02 1.39413264E-01 0.00000000E+00-6.01431844E-02
17  2-8.26001310E-01 3.78670138E-01 0.00000000E+00-2.40676438E-01 6.64997885E-03
17  3 2.77847762E-03-2.73776713E-03 0.00000000E+00-1.71241102E-02 0.00000000E+00
17  4 4.09419552E-02-4.05739998E-02 1.39413264E-01 0.00000000E+00 6.01431844E-02
17  5-8.26001310E-01 3.78670138E-01 0.00000000E+00 2.40676438E-01 6.64997885E-03
17  6 2.77847762E-03-2.73776713E-03 0.00000000E+00 1.71241102E-02 0.00000000E+00
17  7 5.57254607E-02-7.71781564E-02-2.52937504E-02 0.00000000E+00-8.39731798E-02
17  8-7.57412473E-01-2.64001444E-01 0.00000000E+00-3.55817721E-01-1.01805640E-02
17  9 1.26217358E-03 1.68156983E-02 0.00000000E+00-1.44360339E-03 0.00000000E+00
17 10 5.57254607E-02-7.71781564E-02-2.52937504E-02 0.00000000E+00 8.39731798E-02
17 11-7.57412473E-01-2.64001444E-01 0.00000000E+00 3.55817721E-01-1.01805640E-02
17 12 1.26217358E-03 1.68156983E-02 0.00000000E+00 1.44360339E-03 0.00000000E+00
17 13 2.96731266E-02 9.94980042E-01 2.96731266E-02 9.94980042E-01-1.77854205E-02
17 14 3.34537719E-01-1.77854205E-02 3.34537719E-01 4.30126986E-02 8.73816828E-01
17 15 4.30126986E-02 8.73816828E-01
18  1-3.64127544E-02 4.21523007E-02-6.70637554E-02 0.00000000E+00 3.96448844E-02
18  2 5.09603363E-01-1.22549039E-01 0.00000000E+00 1.56975924E-01-1.16063763E-02
18  3-3.28426679E-03 9.82948691E-03 0.00000000E+00 3.11261601E-03 0.00000000E+00
18  4-3.64127544E-02 4.21523007E-02-6.70637554E-02 0.00000000E+00-3.96448844E-02
18  5 5.09603363E-01-1.22549039E-01 0.00000000E+00-1.56975924E-01-1.16063763E-02
18  6-3.28426679E-03 9.82948691E-03 0.00000000E+00-3.11261601E-03 0.00000000E+00
18  7 6.77494166E-02-7.14703014E-02-1.51615630E-01 0.00000000E+00 5.14254350E-02
18  8-1.11345161E+00-5.20241396E-01 0.00000000E+00 1.64949395E-01 3.93100753E-03
18  9 6.08842962E-03-1.35772629E-03 0.00000000E+00-3.10713989E-03 0.00000000E+00
18 10 6.77494166E-02-7.14703014E-02-1.51615630E-01 0.00000000E+00-5.14254350E-02
18 11-1.11345161E+00-5.20241396E-01 0.00000000E+00-1.64949395E-01 3.93100753E-03
18 12 6.08842962E-03-1.35772629E-03 0.00000000E+00 3.10713989E-03 0.00000000E+00
18 13-2.88374012E-02-6.35001365E-01-2.88374012E-02-6.35001365E-01 2.30797869E-02
18 14 1.22654648E+00 2.30797869E-02 1.22654648E+00 9.00924313E-03 2.07864175E-01
18 15 9.00924313E-03 2.07864175E-01
19  1 0.00000000E+00 0.00000000E+00 0.00000000E+00 3.21162067E-01 0.00000000E+00
19  2 0.00000000E+00 0.00000000E+00 7.74202720E-01 0.00000000E+00 0.00000000E+00
19  3 0.00000000E+00 0.00000000E+00-1.13842139E-02 0.00000000E+00 1.33830068E-02
19  4 0.00000000E+00 0.00000000E+00 0.00000000E+00-3.21162067E-01 0.00000000E+00
19  5 0.00000000E+00 0.00000000E+00-7.74202720E-01 0.00000000E+00 0.00000000E+00
19  6 0.00000000E+00 0.00000000E+00 1.13842139E-02 0.00000000E+00 1.33830068E-02
19  7 0.00000000E+00 0.00000000E+00 0.00000000E+00-1.94945561E-01 0.00000000E+00
19  8 0.00000000E+00 0.00000000E+00-5.53593867E-01 0.00000000E+00 0.00000000E+00
19  9 0.00000000E+00 0.00000000E+00-2.37548432E-02 0.00000000E+00-1.27686102E-02
19 10 0.00000000E+00 0.00000000E+00 0.00000000E+00 1.94945561E-01 0.00000000E+00
19 11 0.00000000E+00 0.00000000E+00 5.53593867E-01 0.00000000E+00 0.00000000E+00
19 12 0.00000000E+00 0.00000000E+00 2.37548432E-02 0.00000000E+00-1.27686102E-02
19 13 0.00000000E+00 0.00000000E+00 0.00000000E+00 0.00000000E+00 0.00000000E+00
19 14 0.00000000E+00 0.00000000E+00 0.00000000E+00 0.00000000E+00 0.00000000E+00
19 15 0.00000000E+00 0.00000000E+00
20  1 2.04500115E-02 1.43758858E-03 1.20648873E-01 0.00000000E+00-6.87684944E-02
20  2-6.22796794E-01 5.90595163E-01 0.00000000E+00 1.71862190E-01 9.84378054E-03
20  3 3.55925891E-03-1.03944689E-02 0.00000000E+00 4.27663703E-03 0.00000000E+00
20  4-2.04500115E-02-1.43758858E-03-1.20648873E-01 0.00000000E+00-6.87684944E-02
20  5 6.22796794E-01-5.90595163E-01 0.00000000E+00 1.71862190E-01-9.84378054E-03
20  6-3.55925891E-03 1.03944689E-02 0.00000000E+00 4.27663703E-03 0.00000000E+00
20  7 5.02899695E-02-2.73092850E-02 9.64060550E-03 0.00000000E+00-2.05093324E-01
20  8-1.21150214E+00 1.46389036E-01 0.00000000E+00-6.41843790E-01-2.72716904E-03
20  9 6.06572806E-03 4.62953734E-03 0.00000000E+00-1.32852606E-03 0.00000000E+00
20 10-5.02899695E-02 2.73092850E-02-9.64060550E-03 0.00000000E+00-2.05093324E-01
20 11 1.21150214E+00-1.46389036E-01 0.00000000E+00-6.41843790E-01 2.72716904E-03
20 12-6.06572806E-03-4.62953734E-03 0.00000000E+00-1.32852606E-03 0.00000000E+00
20 13 1.39901131E-03 8.33298951E-01-1.39901131E-03-8.33298951E-01 9.65507578E-03
20 14 6.30827678E-03-9.65507578E-03-6.30827678E-03 8.92477417E-03 1.38823267E+00
20 15-8.92477417E-03-1.38823267E+00
21  1 8.60134447E-02-1.15361570E-01 9.89379027E-02 0.00000000E+00-2.11199188E-02
21  2-1.28058057E+00 8.65915538E-01 0.00000000E+00-3.69300107E-01-4.77129057E-03
21  3 1.05868834E-03 1.03063759E-02 0.00000000E+00 5.48466367E-03 0.00000000E+00
21  4-8.60134447E-02 1.15361570E-01-9.89379027E-02 0.00000000E+00-2.11199188E-02
21  5 1.28058057E+00-8.65915538E-01 0.00000000E+00-3.69300107E-01 4.77129057E-03
21  6-1.05868834E-03-1.03063759E-02 0.00000000E+00 5.48466367E-03 0.00000000E+00
21  7-6.35637097E-02 7.38712119E-02 1.87667738E-02 0.00000000E+00 4.73014245E-02
21  8 8.15030756E-01-1.98697329E-01 0.00000000E+00 3.98503089E-01-4.72069962E-03
21  9-4.00934784E-03-1.02626939E-04 0.00000000E+00-7.94678668E-03 0.00000000E+00
21 10 6.35637097E-02-7.38712119E-02-1.87667738E-02 0.00000000E+00 4.73014245E-02
21 11-8.15030756E-01 1.98697329E-01 0.00000000E+00 3.98503089E-01 4.72069962E-03
21 12 4.00934784E-03 1.02626939E-04 0.00000000E+00-7.94678668E-03 0.00000000E+00
21 13 1.41057495E-02 1.58407044E+00-1.41057495E-02-1.58407044E+00-8.65735346E-03
21 14-2.58149876E-01 8.65735346E-03 2.58149876E-01-8.56854821E-03-8.59998855E-01
21 15 8.56854821E-03 8.59998855E-01
22  1-3.30830773E-02-9.83879095E-04-9.39154282E-02 0.00000000E+00 9.18857470E-02
22  2 1.11247652E+00-4.16598676E-01 0.00000000E+00 6.60185545E-01 1.26633668E-02
22  3-6.83637511E-03-8.59163687E-03 0.00000000E+00-7.03198752E-03 0.00000000E+00
22  4-3.30830773E-02-9.83879095E-04-9.39154282E-02 0.00000000E+00-9.18857470E-02
22  5 1.11247652E+00-4.16598676E-01 0.00000000E+00-6.60185545E-01 1.26633668E-02
22  6-6.83637511E-03-8.59163687E-03 0.00000000E+00 7.03198752E-03 0.00000000E+00
22  7 2.92624291E-02-2.75731806E-02 1.05625613E-01 0.00000000E+00-1.75711857E-01
22  8-7.09238784E-01 8.25592547E-01 0.00000000E+00-9.37790762E-01 5.12441074E-03
22  9 2.30710181E-03-7.20231173E-03 0.00000000E+00-1.82848912E-03 0.00000000E+00
22 10 2.92624291E-02-2.75731806E-02 1.05625613E-01 0.00000000E+00 1.75711857E-01
22 11-7.09238784E-01 8.25592547E-01 0.00000000E+00 9.37790762E-01 5.12441074E-03
22 12 2.30710181E-03-7.20231173E-03 0.00000000E+00 1.82848912E-03 0.00000000E+00
22 13 3.87583701E-02-1.01596113E+00 3.87583701E-02-1.01596113E+00 1.89369358E-02
22 14-8.63211014E-01 1.89369358E-02-8.63211014E-01-1.72351212E-02 1.44198572E+00
22 15-1.72351212E-02 1.44198572E+00
23  1 3.85197324E-02-6.28283408E-02 3.34534292E-02 0.00000000E+00 1.43168727E-01
23  2-5.08946394E-01 6.50453348E-01 0.00000000E+00 4.87774998E-01-1.70787049E-02
23  3-5.88216129E-03 2.56158232E-02 0.00000000E+00 5.46084508E-03 0.00000000E+00
23  4-3.85197324E-02 6.28283408E-02-3.34534292E-02 0.00000000E+00 1.43168727E-01
23  5 5.08946394E-01-6.50453348E-01 0.00000000E+00 4.87774998E-01 1.70787049E-02
23  6 5.88216129E-03-2.56158232E-02 0.00000000E+00 5.46084508E-03 0.00000000E+00
23  7 5.02201130E-02-3.06024264E-02-1.82361196E-01 0.00000000E+00 5.51992467E-02
23  8-1.38817709E+00-5.92473768E-01 0.00000000E+00 6.13591419E-01 1.88016547E-02
23  9 2.66638255E-03-1.80070621E-02 0.00000000E+00-1.16784174E-02 0.00000000E+00
23 10-5.02201130E-02 3.06024264E-02 1.82361196E-01 0.00000000E+00 5.51992467E-02
23 11 1.38817709E+00 5.92473768E-01 0.00000000E+00 6.13591419E-01-1.88016547E-02
23 12-2.66638255E-03 1.80070621E-02 0.00000000E+00-1.16784174E-02 0.00000000E+00
23 13-4.15638869E-02 3.63727557E-01 4.15638869E-02-3.63727557E-01 7.02337635E-02
23 14 1.64025965E+00-7.02337635E-02-1.64025965E+00-5.20171168E-02-2.81091846E-01
23 15 5.20171168E-02 2.81091846E-01
24  1-5.25703384E-02 4.76893687E-02 1.61258509E-01 0.00000000E+00 2.14902495E-02
24  2 2.23762914E+00 1.29759638E+00 0.00000000E+00 9.19302919E-01-1.20864468E-03
24  3-2.63142866E-03 1.62345421E-02 0.00000000E+00-1.46818986E-02 0.00000000E+00
24  4-5.25703384E-02 4.76893687E-02 1.61258509E-01 0.00000000E+00-2.14902495E-02
24  5 2.23762914E+00 1.29759638E+00 0.00000000E+00-9.19302919E-01-1.20864468E-03
24  6-2.63142866E-03 1.62345421E-02 0.00000000E+00 1.46818986E-02 0.00000000E+00
24  7 6.03059287E-02-5.81944958E-03 7.91981302E-02 0.00000000E+00 2.86096625E-02
24  8-2.00029536E+00 1.40357316E+00 0.00000000E+00 1.28377876E+00 3.51908834E-03
24  9 7.44436308E-03-1.07920918E-02 0.00000000E+00 1.46675934E-02 0.00000000E+00
24 10 6.03059287E-02-5.81944958E-03 7.91981302E-02 0.00000000E+00-2.86096625E-02
24 11-2.00029536E+00 1.40357316E+00 0.00000000E+00-1.28377876E+00 3.51908834E-03
24 12 7.44436308E-03-1.07920918E-02 0.00000000E+00-1.46675934E-02 0.00000000E+00
24 13 4.61930255E-02 3.77729385E-01 4.61930255E-02 3.77729385E-01-1.41118484E-02
24 14-1.10936030E-01-1.41118484E-02-1.10936030E-01-7.33696253E-02-4.09836013E-01
24 15-7.33696253E-02-4.09836013E-01
25  1-9.31173450E-02 1.16597162E-02 1.47775382E-01 0.00000000E+00-9.76678294E-02
25  2 3.35163228E+00 2.09337985E+00 0.00000000E+00-1.38179128E+00 1.89824276E-02
25  3-8.15143931E-03 4.75904707E-03 0.00000000E+00 1.85224894E-02 0.00000000E+00
25  4 9.31173450E-02-1.16597162E-02-1.47775382E-01 0.00000000E+00-9.76678294E-02
25  5-3.35163228E+00-2.09337985E+00 0.00000000E+00-1.38179128E+00-1.89824276E-02
25  6 8.15143931E-03-4.75904707E-03 0.00000000E+00 1.85224894E-02 0.00000000E+00
25  7 4.31328805E-02 2.87038732E-02-9.61003006E-02 0.00000000E+00 3.92956446E-02