 $CONTRL  scftyp=mcscf $END
 $basis gbasis=n31 ngauss=6 ndfunc=1 $end

! norder=0 Порядок МО уже не меняется- задан ответ CASSCF исходной геометрии
! $Guess guess=moread norb=17 norder=0  prtmo=.t. $end

 $dEt group=cs  ncore=13 nact=4 neLs=4 SZ=0 nstate=1 $end
 $DATA
 C4H6
Cs

CARBON      6.0     -0.552230614        -0.080695679        -0.735582760
CARBON      6.0      0.517107777         0.075564270        -1.534451895
HYDROGEN    1.0     -1.523945524        -0.222690135        -1.205477481
HYDROGEN    1.0      0.492785102         0.731633825        -2.398470587
HYDROGEN    1.0      1.449362035        -0.447844877        -1.348735592
 $END
--- NATURAL ORBITALS OF MCSCF --- GENERATED AT Thu Nov 16 14:28:23 2023
 C4H6                                                                           
E(MCSCF)=     -154.9699510950, E(NUC)=      104.5079680865
 $VEC   
 1  1 7.01425471E-01 1.95623233E-02 2.88634182E-05 0.00000000E+00-3.96799812E-05
 1  2-6.16657454E-03-4.28999103E-04 0.00000000E+00-5.41304552E-04-1.42738626E-03
 1  3-1.81383498E-03-1.69099963E-03 0.00000000E+00 1.25847285E-04 0.00000000E+00
 1  4 7.01425471E-01 1.95623233E-02 2.88634182E-05 0.00000000E+00 3.96799812E-05
 1  5-6.16657454E-03-4.28999103E-04 0.00000000E+00 5.41304552E-04-1.42738626E-03
 1  6-1.81383498E-03-1.69099963E-03 0.00000000E+00-1.25847285E-04 0.00000000E+00
 1  7 5.82606242E-02 1.33193906E-03 1.00257555E-04 0.00000000E+00 1.29925609E-04
 1  8 2.13624350E-03-6.85513851E-04 0.00000000E+00-1.01081200E-03-2.80327128E-04
 1  9-2.43760484E-04-2.58519855E-04 0.00000000E+00 1.79999985E-05 0.00000000E+00
 1 10 5.82606242E-02 1.33193906E-03 1.00257555E-04 0.00000000E+00-1.29925609E-04
 1 11 2.13624350E-03-6.85513851E-04 0.00000000E+00 1.01081200E-03-2.80327128E-04
 1 12-2.43760484E-04-2.58519855E-04 0.00000000E+00-1.79999985E-05 0.00000000E+00
 1 13-1.44976621E-04 1.27326169E-03-1.44976621E-04 1.27326169E-03-1.05666848E-04
 1 14-8.98236009E-05-1.05666848E-04-8.98236009E-05-1.44298609E-05 2.95181871E-04
 1 15-1.44298609E-05 2.95181871E-04
 2  1 7.01166790E-01 1.95227964E-02 1.01066879E-04 0.00000000E+00-2.26680011E-04
 2  2-1.19523107E-02-1.45632475E-03 0.00000000E+00 1.68430274E-03-1.08543718E-03
 2  3-1.57317645E-03-7.03551020E-04 0.00000000E+00 2.83285997E-04 0.00000000E+00
 2  4-7.01166790E-01-1.95227964E-02-1.01066879E-04 0.00000000E+00-2.26680011E-04
 2  5 1.19523107E-02 1.45632475E-03 0.00000000E+00 1.68430274E-03 1.08543718E-03
 2  6 1.57317645E-03 7.03551020E-04 0.00000000E+00 2.83285997E-04 0.00000000E+00
 2  7 6.44390503E-02 1.64985213E-03 1.27633695E-04 0.00000000E+00 4.13134816E-05
 2  8 2.99859697E-03-7.47189478E-04 0.00000000E+00-1.21947771E-03-4.67867267E-04
 2  9-1.78628420E-04-3.09377864E-04 0.00000000E+00-3.53453935E-05 0.00000000E+00
 2 10-6.44390503E-02-1.64985213E-03-1.27633695E-04 0.00000000E+00 4.13134816E-05
 2 11-2.99859697E-03 7.47189478E-04 0.00000000E+00-1.21947771E-03 4.67867267E-04
 2 12 1.78628420E-04 3.09377864E-04 0.00000000E+00-3.53453935E-05 0.00000000E+00
 2 13-6.60019092E-05 1.04999528E-03 6.60019092E-05-1.04999528E-03-8.11395026E-05
 2 14-1.76964364E-04 8.11395026E-05 1.76964364E-04-3.78438713E-05 1.44438526E-04
 2 15 3.78438713E-05-1.44438526E-04
 3  1-6.48971141E-02-1.92689316E-03-1.28792257E-04 0.00000000E+00-9.76665333E-05
 3  2 4.07736776E-03 1.19439024E-03 0.00000000E+00 6.23283519E-04-1.23757501E-04
 3  3 1.08422070E-04-2.23307191E-04 0.00000000E+00-3.75267150E-05 0.00000000E+00
 3  4 6.48971141E-02 1.92689316E-03 1.28792257E-04 0.00000000E+00-9.76665333E-05
 3  5-4.07736776E-03-1.19439024E-03 0.00000000E+00 6.23283519E-04 1.23757501E-04
 3  6-1.08422070E-04 2.23307191E-04 0.00000000E+00-3.75267150E-05 0.00000000E+00
 3  7 7.01029846E-01 1.95701419E-02-3.06720883E-05 0.00000000E+00-7.94396059E-05
 3  8-8.76618223E-03 3.49766191E-04 0.00000000E+00 6.08142166E-04-1.26269919E-03
 3  9-1.77636978E-03-1.34325872E-03 0.00000000E+00 1.62944041E-04 0.00000000E+00
 3 10-7.01029846E-01-1.95701419E-02 3.06720883E-05 0.00000000E+00-7.94396059E-05
 3 11 8.76618223E-03-3.49766191E-04 0.00000000E+00 6.08142166E-04 1.26269919E-03
 3 12 1.77636978E-03 1.34325872E-03 0.00000000E+00 1.62944041E-04 0.00000000E+00
 3 13-2.56295143E-05-2.17481370E-04 2.56295143E-05 2.17481370E-04-7.99124891E-05
 3 14 1.78725099E-03 7.99124891E-05-1.78725099E-03-1.01431747E-04 1.38837449E-03
 3 15 1.01431747E-04-1.38837449E-03
 4  1-5.87022306E-02-1.89934990E-03-1.71885605E-04 0.00000000E+00-7.61786191E-05
 4  2 3.18708346E-03 9.60755130E-04 0.00000000E+00 7.32122776E-04-8.13614810E-05
 4  3 7.15925777E-05-2.47900691E-05 0.00000000E+00-5.57459285E-05 0.00000000E+00
 4  4-5.87022306E-02-1.89934990E-03-1.71885605E-04 0.00000000E+00 7.61786191E-05
 4  5 3.18708346E-03 9.60755130E-04 0.00000000E+00-7.32122776E-04-8.13614810E-05
 4  6 7.15925777E-05-2.47900691E-05 0.00000000E+00 5.57459285E-05 0.00000000E+00
 4  7 7.01553290E-01 1.95460234E-02-6.58861393E-05 0.00000000E+00-1.08069325E-05
 4  8-8.13200519E-03 5.10430075E-04 0.00000000E+00 2.21600936E-04-1.29262641E-03
 4  9-1.83695567E-03-1.41451803E-03 0.00000000E+00 1.60132616E-04 0.00000000E+00
 4 10 7.01553290E-01 1.95460234E-02-6.58861393E-05 0.00000000E+00 1.08069325E-05
 4 11-8.13200519E-03 5.10430075E-04 0.00000000E+00-2.21600936E-04-1.29262641E-03
 4 12-1.83695567E-03-1.41451803E-03 0.00000000E+00-1.60132616E-04 0.00000000E+00
 4 13-2.13295254E-05-5.33105610E-05-2.13295254E-05-5.33105610E-05-1.11187267E-04
 4 14 1.33337523E-03-1.11187267E-04 1.33337523E-03-8.68708432E-05 1.52793708E-03
 4 15-8.68708432E-05 1.52793708E-03
 5  1-1.30730390E-01 2.49908802E-01 4.66249298E-02 0.00000000E+00-2.37361746E-02
 5  2 1.70684874E-01-2.98533235E-05 0.00000000E+00-5.47660092E-03 7.15108656E-03
 5  3-1.08300151E-02 1.30060354E-02 0.00000000E+00 2.74188705E-03 0.00000000E+00
 5  4-1.30730390E-01 2.49908802E-01 4.66249298E-02 0.00000000E+00 2.37361746E-02
 5  5 1.70684874E-01-2.98533235E-05 0.00000000E+00 5.47660092E-03 7.15108656E-03
 5  6-1.08300151E-02 1.30060354E-02 0.00000000E+00-2.74188705E-03 0.00000000E+00
 5  7-9.14067050E-02 1.72209569E-01-5.63735192E-02 0.00000000E+00-5.16465200E-02
 5  8 1.28267546E-01-5.66278558E-03 0.00000000E+00-6.74808175E-03 7.58275372E-03
 5  9-7.45589537E-03 5.87219120E-03 0.00000000E+00 5.56850812E-03 0.00000000E+00
 5 10-9.14067050E-02 1.72209569E-01-5.63735192E-02 0.00000000E+00 5.16465200E-02
 5 11 1.28267546E-01-5.66278558E-03 0.00000000E+00 6.74808175E-03 7.58275372E-03
 5 12-7.45589537E-03 5.87219120E-03 0.00000000E+00-5.56850812E-03 0.00000000E+00
 5 13 6.31809592E-02 1.00058118E-02 6.31809592E-02 1.00058118E-02 4.60871387E-02
 5 14 9.02355572E-03 4.60871387E-02 9.02355572E-03 4.11544598E-02 6.85595712E-03
 5 15 4.11544598E-02 6.85595712E-03
 6  1-8.89607493E-02 1.72086534E-01 6.56329888E-02 0.00000000E+00 1.10202357E-01
 6  2 1.25093356E-01-1.07009815E-02 0.00000000E+00 2.57132309E-02 1.14320105E-02
 6  3-5.81551745E-03-4.07908837E-03 0.00000000E+00 7.00135972E-03 0.00000000E+00
 6  4 8.89607493E-02-1.72086534E-01-6.56329888E-02 0.00000000E+00 1.10202357E-01
 6  5-1.25093356E-01 1.07009815E-02 0.00000000E+00 2.57132309E-02-1.14320105E-02
 6  6 5.81551745E-03 4.07908837E-03 0.00000000E+00 7.00135972E-03 0.00000000E+00
 6  7-1.25974120E-01 2.37948486E-01-6.09435296E-02 0.00000000E+00-3.02687555E-02
 6  8 2.08418252E-01-2.59194364E-03 0.00000000E+00-6.53848985E-03 1.10062497E-02
 6  9-1.01800074E-02 8.34513343E-03 0.00000000E+00 3.88228352E-03 0.00000000E+00
 6 10 1.25974120E-01-2.37948486E-01 6.09435296E-02 0.00000000E+00-3.02687555E-02
 6 11-2.08418252E-01 2.59194364E-03 0.00000000E+00-6.53848985E-03-1.10062497E-02
 6 12 1.01800074E-02-8.34513343E-03 0.00000000E+00 3.88228352E-03 0.00000000E+00
 6 13 5.50839473E-02 6.66770338E-03-5.50839473E-02-6.66770338E-03 6.76503370E-02
 6 14 9.95117783E-03-6.76503370E-02-9.95117783E-03 7.74616293E-02 2.09959134E-02
 6 15-7.74616293E-02-2.09959134E-02
 7  1 7.41598109E-02-1.45968076E-01 1.25922876E-01 0.00000000E+00 1.36073686E-01
 7  2-1.34805738E-01 4.30432856E-02 0.00000000E+00 3.33625658E-02-1.78710844E-03
 7  3 6.38210951E-03-1.31306309E-02 0.00000000E+00 7.52772683E-03 0.00000000E+00
 7  4 7.41598109E-02-1.45968076E-01 1.25922876E-01 0.00000000E+00-1.36073686E-01
 7  5-1.34805738E-01 4.30432856E-02 0.00000000E+00-3.33625658E-02-1.78710844E-03
 7  6 6.38210951E-03-1.31306309E-02 0.00000000E+00-7.52772683E-03 0.00000000E+00
 7  7-1.02603462E-01 1.97309424E-01 5.42136922E-02 0.00000000E+00 4.07663527E-02
 7  8 1.86641669E-01 2.26970565E-02 0.00000000E+00 1.89668370E-02 8.48145030E-03
 7  9-8.52463130E-03 1.06636310E-02 0.00000000E+00-6.70774155E-03 0.00000000E+00
 7 10-1.02603462E-01 1.97309424E-01 5.42136922E-02 0.00000000E+00-4.07663527E-02
 7 11 1.86641669E-01 2.26970565E-02 0.00000000E+00-1.89668370E-02 8.48145030E-03
 7 12-8.52463130E-03 1.06636310E-02 0.00000000E+00 6.70774155E-03 0.00000000E+00
 7 13-8.58292203E-02-3.41284421E-02-8.58292203E-02-3.41284421E-02 1.02827718E-01
 7 14 4.68672250E-02 1.02827718E-01 4.68672250E-02 9.96843769E-02 4.09236466E-02
 7 15 9.96843769E-02 4.09236466E-02
 8  1 8.52159321E-02-1.68453662E-01 7.29282293E-02 0.00000000E+00-1.02122341E-01
 8  2-1.64571123E-01 6.90967699E-02 0.00000000E+00-2.98557864E-02-1.29348032E-02
 8  3 5.71534388E-03 3.63460061E-03 0.00000000E+00 8.04692521E-03 0.00000000E+00
 8  4-8.52159321E-02 1.68453662E-01-7.29282293E-02 0.00000000E+00-1.02122341E-01
 8  5 1.64571123E-01-6.90967699E-02 0.00000000E+00-2.98557864E-02 1.29348032E-02
 8  6-5.71534388E-03-3.63460061E-03 0.00000000E+00 8.04692521E-03 0.00000000E+00
 8  7-6.07728742E-02 1.17361321E-01 1.81999327E-01 0.00000000E+00 8.03182352E-02
 8  8 1.20202034E-01 7.03113857E-02 0.00000000E+00 4.29416691E-02 4.04489455E-03
 8  9-5.40903514E-03 1.13143394E-02 0.00000000E+00-1.32470218E-02 0.00000000E+00
 8 10 6.07728742E-02-1.17361321E-01-1.81999327E-01 0.00000000E+00 8.03182352E-02
 8 11-1.20202034E-01-7.03113857E-02 0.00000000E+00 4.29416691E-02-4.04489455E-03
 8 12 5.40903514E-03-1.13143394E-02 0.00000000E+00-1.32470218E-02 0.00000000E+00
 8 13-1.35751596E-01-6.21652337E-02 1.35751596E-01 6.21652337E-02 1.29045606E-01
 8 14 7.22105914E-02-1.29045606E-01-7.22105914E-02 9.14303794E-02 4.74121303E-02
 8 15-9.14303794E-02-4.74121303E-02
 9  1 6.70034872E-03-1.74223580E-02-1.80396755E-01 0.00000000E+00 1.75893608E-01
 9  2-6.26616964E-03-6.98927816E-02 0.00000000E+00 6.05914533E-02 8.49064132E-03
 9  3-5.13503972E-04-4.14483764E-03 0.00000000E+00-2.74600836E-03 0.00000000E+00
 9  4 6.70034872E-03-1.74223580E-02-1.80396755E-01 0.00000000E+00-1.75893608E-01
 9  5-6.26616964E-03-6.98927816E-02 0.00000000E+00-6.05914533E-02 8.49064132E-03
 9  6-5.13503972E-04-4.14483764E-03 0.00000000E+00 2.74600836E-03 0.00000000E+00
 9  7-1.05622302E-02 1.92093015E-02-8.01916806E-02 0.00000000E+00 2.05431406E-01
 9  8 3.31371699E-02-3.61604282E-02 0.00000000E+00 8.31807729E-02-5.28889821E-03
 9  9-1.02420820E-03 8.54263709E-03 0.00000000E+00-1.62231468E-03 0.00000000E+00
 9 10-1.05622302E-02 1.92093015E-02-8.01916806E-02 0.00000000E+00-2.05431406E-01
 9 11 3.31371699E-02-3.61604282E-02 0.00000000E+00-8.31807729E-02-5.28889821E-03
 9 12-1.02420820E-03 8.54263709E-03 0.00000000E+00 1.62231468E-03 0.00000000E+00
 9 13 1.28993117E-01 8.91539988E-02 1.28993117E-01 8.91539988E-02-7.62148493E-02
 9 14-5.12299122E-02-7.62148493E-02-5.12299122E-02 1.29578325E-01 8.39247813E-02
 9 15 1.29578325E-01 8.39247813E-02
10  1 1.05883254E-02-2.13497330E-02-2.06259701E-01 0.00000000E+00-1.98618129E-01
10  2-6.65886028E-03-8.30105187E-02 0.00000000E+00-6.54832525E-02 1.51663136E-04
10  3-3.45633516E-05 5.39370854E-03 0.00000000E+00-7.91563053E-03 0.00000000E+00
10  4 1.05883254E-02-2.13497330E-02-2.06259701E-01 0.00000000E+00 1.98618129E-01
10  5-6.65886028E-03-8.30105187E-02 0.00000000E+00 6.54832525E-02 1.51663136E-04
10  6-3.45633516E-05 5.39370854E-03 0.00000000E+00 7.91563053E-03 0.00000000E+00
10  7 1.73517148E-03-8.10550271E-03 2.80344037E-01 0.00000000E+00 9.35276679E-02
10  8 2.95957713E-02 1.11534184E-01 0.00000000E+00 2.01958575E-02 6.39021063E-03
10  9-1.36834837E-03 3.62712053E-03 0.00000000E+00-1.73158173E-02 0.00000000E+00
10 10 1.73517148E-03-8.10550271E-03 2.80344037E-01 0.00000000E+00-9.35276679E-02
10 11 2.95957713E-02 1.11534184E-01 0.00000000E+00-2.01958575E-02 6.39021063E-03
10 12-1.36834837E-03 3.62712053E-03 0.00000000E+00 1.73158173E-02 0.00000000E+00
10 13 5.29542350E-02 4.05783243E-02 5.29542350E-02 4.05783243E-02 1.43906901E-01
10 14 1.09370185E-01 1.43906901E-01 1.09370185E-01 4.10757278E-02 3.74540476E-02
10 15 4.10757278E-02 3.74540476E-02
11  1 1.81259679E-02-4.04880061E-02-1.74514032E-01 0.00000000E+00-3.76598372E-03
11  2-1.45711665E-02-5.80204182E-02 0.00000000E+00-1.31650675E-02-3.04987832E-03
11  3-1.77723233E-04 9.11026744E-03 0.00000000E+00-1.25802347E-02 0.00000000E+00
11  4-1.81259679E-02 4.04880061E-02 1.74514032E-01 0.00000000E+00-3.76598372E-03
11  5 1.45711665E-02 5.80204182E-02 0.00000000E+00-1.31650675E-02 3.04987832E-03
11  6 1.77723233E-04-9.11026744E-03 0.00000000E+00-1.25802347E-02 0.00000000E+00
11  7 1.07105431E-02-2.24255221E-02-2.33893552E-02 0.00000000E+00 3.04622703E-01
11  8-1.89633987E-02-2.94026060E-02 0.00000000E+00 1.46051247E-01-1.35732736E-02
11  9-9.49397457E-05 1.88232347E-02 0.00000000E+00-4.89768368E-03 0.00000000E+00
11 10-1.07105431E-02 2.24255221E-02 2.33893552E-02 0.00000000E+00 3.04622703E-01
11 11 1.89633987E-02 2.94026060E-02 0.00000000E+00 1.46051247E-01 1.35732736E-02
11 12 9.49397457E-05-1.88232347E-02 0.00000000E+00-4.89768368E-03 0.00000000E+00
11 13 8.01375573E-02 7.14816956E-02-8.01375573E-02-7.14816956E-02-8.82217033E-02
11 14-5.39992119E-02 8.82217033E-02 5.39992119E-02 1.84440280E-01 1.40695650E-01
11 15-1.84440280E-01-1.40695650E-01
12  1-1.13138832E-02 1.97368181E-02-2.43855553E-01 0.00000000E+00-1.77106882E-02
12  2 4.35768456E-02-1.40721872E-01 0.00000000E+00 3.09810138E-02 1.54220921E-02
12  3-1.48261448E-03-7.15344561E-03 0.00000000E+00-2.41350512E-02 0.00000000E+00
12  4 1.13138832E-02-1.97368181E-02 2.43855553E-01 0.00000000E+00-1.77106882E-02
12  5-4.35768456E-02 1.40721872E-01 0.00000000E+00 3.09810138E-02-1.54220921E-02
12  6 1.48261448E-03 7.15344561E-03 0.00000000E+00-2.41350512E-02 0.00000000E+00
12  7 1.62477098E-02-3.49008489E-02 2.56586841E-01 0.00000000E+00-3.08647544E-02
12  8-2.27963552E-02 1.34212350E-01 0.00000000E+00-4.42348577E-02 1.70811382E-02
12  9 1.39704702E-04-1.08997557E-02 0.00000000E+00-1.36118348E-02 0.00000000E+00
12 10-1.62477098E-02 3.49008489E-02-2.56586841E-01 0.00000000E+00-3.08647544E-02
12 11 2.27963552E-02-1.34212350E-01 0.00000000E+00-4.42348577E-02-1.70811382E-02
12 12-1.39704702E-04 1.08997557E-02 0.00000000E+00-1.36118348E-02 0.00000000E+00
12 13 1.69048672E-01 1.37472221E-01-1.69048672E-01-1.37472221E-01 1.55524609E-01
12 14 1.29592306E-01-1.55524609E-01-1.29592306E-01-5.85230340E-02-3.93461379E-02
12 15 5.85230340E-02 3.93461379E-02
13  1 1.44949479E-02-3.35507270E-02-8.77327017E-02 0.00000000E+00 2.83792101E-01
13  2-3.84312242E-02-6.62483244E-02 0.00000000E+00 1.41022911E-01 2.32400209E-02
13  3-1.43931262E-05-2.02208581E-02 0.00000000E+00-5.86860855E-03 0.00000000E+00
13  4 1.44949479E-02-3.35507270E-02-8.77327017E-02 0.00000000E+00-2.83792101E-01
13  5-3.84312242E-02-6.62483244E-02 0.00000000E+00-1.41022911E-01 2.32400209E-02
13  6-1.43931262E-05-2.02208581E-02 0.00000000E+00 5.86860855E-03 0.00000000E+00
13  7-3.05356870E-03 6.10559668E-03 5.94592048E-02 0.00000000E+00-1.98050051E-01
13  8 3.20260547E-03 4.31996262E-02 0.00000000E+00-1.25499257E-01 2.10702150E-02
13  9-2.55167699E-05-2.33008330E-02 0.00000000E+00-4.44567823E-03 0.00000000E+00
13 10-3.05356870E-03 6.10559668E-03 5.94592048E-02 0.00000000E+00 1.98050051E-01
13 11 3.20260547E-03 4.31996262E-02 0.00000000E+00 1.25499257E-01 2.10702150E-02
13 12-2.55167699E-05-2.33008330E-02 0.00000000E+00 4.44567823E-03 0.00000000E+00
13 13 1.32331897E-01 1.19128246E-01 1.32331897E-01 1.19128246E-01 1.08192859E-01
13 14 1.01321984E-01 1.08192859E-01 1.01321984E-01-1.48006308E-01-1.26343856E-01
13 15-1.48006308E-01-1.26343856E-01
14  1 0.00000000E+00 0.00000000E+00 0.00000000E+00 3.02178254E-01 0.00000000E+00
14  2 0.00000000E+00 0.00000000E+00 1.99411773E-01 0.00000000E+00 0.00000000E+00
14  3 0.00000000E+00 0.00000000E+00 1.05249088E-02 0.00000000E+00-2.77905272E-03
14  4 0.00000000E+00 0.00000000E+00 0.00000000E+00 3.02178254E-01 0.00000000E+00
14  5 0.00000000E+00 0.00000000E+00 1.99411773E-01 0.00000000E+00 0.00000000E+00
14  6 0.00000000E+00 0.00000000E+00 1.05249088E-02 0.00000000E+00 2.77905272E-03
14  7 0.00000000E+00 0.00000000E+00 0.00000000E+00 2.31079795E-01 0.00000000E+00
14  8 0.00000000E+00 0.00000000E+00 1.64884663E-01 0.00000000E+00 0.00000000E+00
14  9 0.00000000E+00 0.00000000E+00-1.18915009E-02 0.00000000E+00-9.67200120E-03
14 10 0.00000000E+00 0.00000000E+00 0.00000000E+00 2.31079795E-01 0.00000000E+00
14 11 0.00000000E+00 0.00000000E+00 1.64884663E-01 0.00000000E+00 0.00000000E+00
14 12 0.00000000E+00 0.00000000E+00-1.18915009E-02 0.00000000E+00 9.67200120E-03
14 13 0.00000000E+00 0.00000000E+00 0.00000000E+00 0.00000000E+00 0.00000000E+00
14 14 0.00000000E+00 0.00000000E+00 0.00000000E+00 0.00000000E+00 0.00000000E+00
14 15 0.00000000E+00 0.00000000E+00
15  1 0.00000000E+00 0.00000000E+00 0.00000000E+00 2.48905986E-01 0.00000000E+00
15  2 0.00000000E+00 0.00000000E+00 2.09143889E-01 0.00000000E+00 0.00000000E+00
15  3 0.00000000E+00 0.00000000E+00 1.25733669E-02 0.00000000E+00 1.83941492E-02
15  4 0.00000000E+00 0.00000000E+00 0.00000000E+00-2.48905986E-01 0.00000000E+00
15  5 0.00000000E+00 0.00000000E+00-2.09143889E-01 0.00000000E+00 0.00000000E+00
15  6 0.00000000E+00 0.00000000E+00-1.25733669E-02 0.00000000E+00 1.83941492E-02
15  7 0.00000000E+00 0.00000000E+00 0.00000000E+00 3.17795121E-01 0.00000000E+00
15  8 0.00000000E+00 0.00000000E+00 2.56155548E-01 0.00000000E+00 0.00000000E+00
15  9 0.00000000E+00 0.00000000E+00-1.19533885E-02 0.00000000E+00-7.46236540E-03
15 10 0.00000000E+00 0.00000000E+00 0.00000000E+00-3.17795121E-01 0.00000000E+00
15 11 0.00000000E+00 0.00000000E+00-2.56155548E-01 0.00000000E+00 0.00000000E+00
15 12 0.00000000E+00 0.00000000E+00 1.19533885E-02 0.00000000E+00-7.46236540E-03
15 13 0.00000000E+00 0.00000000E+00 0.00000000E+00 0.00000000E+00 0.00000000E+00
15 14 0.00000000E+00 0.00000000E+00 0.00000000E+00 0.00000000E+00 0.00000000E+00
15 15 0.00000000E+00 0.00000000E+00
16  1 0.00000000E+00 0.00000000E+00 0.00000000E+00-3.28909852E-01 0.00000000E+00
16  2 0.00000000E+00 0.00000000E+00-2.18260444E-01 0.00000000E+00 0.00000000E+00
16  3 0.00000000E+00 0.00000000E+00 7.92134246E-03 0.00000000E+00 1.42964857E-02
16  4 0.00000000E+00 0.00000000E+00 0.00000000E+00-3.28909852E-01 0.00000000E+00
16  5 0.00000000E+00 0.00000000E+00-2.18260444E-01 0.00000000E+00 0.00000000E+00
16  6 0.00000000E+00 0.00000000E+00 7.92134246E-03 0.00000000E+00-1.42964857E-02
16  7 0.00000000E+00 0.00000000E+00 0.00000000E+00 4.24390857E-01 0.00000000E+00
16  8 0.00000000E+00 0.00000000E+00 3.05353064E-01 0.00000000E+00 0.00000000E+00
16  9 0.00000000E+00 0.00000000E+00 1.09820334E-03 0.00000000E+00 1.85557038E-03
16 10 0.00000000E+00 0.00000000E+00 0.00000000E+00 4.24390857E-01 0.00000000E+00
16 11 0.00000000E+00 0.00000000E+00 3.05353064E-01 0.00000000E+00 0.00000000E+00
16 12 0.00000000E+00 0.00000000E+00 1.09820334E-03 0.00000000E+00-1.85557038E-03
16 13 0.00000000E+00 0.00000000E+00 0.00000000E+00 0.00000000E+00 0.00000000E+00
16 14 0.00000000E+00 0.00000000E+00 0.00000000E+00 0.00000000E+00 0.00000000E+00
16 15 0.00000000E+00 0.00000000E+00
17  1 0.00000000E+00 0.00000000E+00 0.00000000E+00 4.86119900E-01 0.00000000E+00
17  2 0.00000000E+00 0.00000000E+00 3.96868012E-01 0.00000000E+00 0.00000000E+00
17  3 0.00000000E+00 0.00000000E+00 5.64643350E-04 0.00000000E+00 1.11229815E-02
17  4 0.00000000E+00 0.00000000E+00 0.00000000E+00-4.86119900E-01 0.00000000E+00
17  5 0.00000000E+00 0.00000000E+00-3.96868012E-01 0.00000000E+00 0.00000000E+00
17  6 0.00000000E+00 0.00000000E+00-5.64643350E-04 0.00000000E+00 1.11229815E-02
17  7 0.00000000E+00 0.00000000E+00 0.00000000E+00-3.74400406E-01 0.00000000E+00
17  8 0.00000000E+00 0.00000000E+00-2.54336370E-01 0.00000000E+00 0.00000000E+00
17  9 0.00000000E+00 0.00000000E+00-7.37322269E-03 0.00000000E+00-4.79780789E-03
17 10 0.00000000E+00 0.00000000E+00 0.00000000E+00 3.74400406E-01 0.00000000E+00
17 11 0.00000000E+00 0.00000000E+00 2.54336370E-01 0.00000000E+00 0.00000000E+00
17 12 0.00000000E+00 0.00000000E+00 7.37322269E-03 0.00000000E+00-4.79780789E-03
17 13 0.00000000E+00 0.00000000E+00 0.00000000E+00 0.00000000E+00 0.00000000E+00
17 14 0.00000000E+00 0.00000000E+00 0.00000000E+00 0.00000000E+00 0.00000000E+00
17 15 0.00000000E+00 0.00000000E+00
 $END   
