 $CONTRL 
! runtyp=hessian
 runtyp=sadpoint
 scftyp=mcscf
 $END
 $basis gbasis=n31 ngauss=6 ndfunc=1 $end
! $Guess guess=moread norb=17 norder=0 iorder(17)=19,17,18  prtmo=.t. $end
! $Mcscf fulnr=.t. $end
 $statpt NSTEP=100 ifolow=1 hssend=.t. $end
 $dEt group=cs  ncore=13 nact=4 neLs=4 SZ=0 nstate=1 $end
 $DATA
 C4H6
Cs

CARBON      6.0     -0.823047222        -0.120269484         0.735582760
CARBON      6.0      0.517107777         0.075564270         1.250000000
HYDROGEN    1.0     -1.794762132        -0.262263940         1.205477480
HYDROGEN    1.0      0.492785102         0.731633825         2.114018692
HYDROGEN    1.0      1.449362034        -0.447844877         1.064283697
 $END
 $HESS
ENERGY IS     -154.8388968304 E(NUC) IS      104.7323617001
 1  1 6.02479981E-01 7.83165634E-02 1.77456684E-01-1.99678831E-01 1.25653590E-02
 1  2-1.29475330E-01-1.73976281E-01 3.66591843E-03 8.13684574E-02 7.65518860E-02
 1  3 9.95710239E-03-6.10163649E-02-2.89041835E-01-7.40497267E-02-1.08279980E-01
 1  4 4.50437081E-03-1.31390569E-02 3.36609139E-02 9.07248671E-03 2.86551688E-02
 1  5 2.62346614E-02-2.59205944E-03 1.29259084E-02-1.54179159E-02-2.19721550E-02
 1  6-4.14794534E-02-2.22526472E-02-5.34758114E-03-1.74178059E-02 1.77215492E-02
 2  1 7.83165634E-02 1.19071713E-01-3.21274793E-02 1.25653590E-02-5.02429042E-02
 2  2 1.21635586E-02-2.66862616E-02-5.38539814E-02 3.57161216E-02-1.52837931E-02
 2  3 3.31411645E-03-5.43407714E-03-3.64540745E-02-2.87003372E-02-8.35794843E-03
 2  4-3.73573793E-04 4.66862177E-03 1.05982279E-03-1.59132692E-02 4.15678580E-03
 2  5 9.61085255E-03-1.32702165E-03 1.44123076E-03-2.35032353E-03 5.56697184E-03
 2  6-5.88792276E-04-9.52543934E-03-4.10892875E-04 7.33544519E-04-7.55106683E-04
 3  1 1.77456684E-01-3.21274793E-02 3.38306947E-01 1.29475330E-01-1.21635586E-02
 3  2-5.40093971E-02-6.85309594E-02 1.36510248E-02-1.26501847E-01-1.39509026E-01
 3  3-3.07080707E-02-2.15845543E-02-1.23731213E-01 2.19521231E-02-1.22696840E-01
 3  4-5.08525747E-03 3.05343754E-02-9.97076928E-03 2.81398062E-02-2.07233179E-02
 3  5-3.57916386E-02-8.35780226E-03-2.61114444E-02 2.20754125E-02-9.41387696E-05
 3  6 2.56447275E-02 3.64213057E-02 1.02365819E-02 3.00516109E-02-2.62486048E-02
 4  1-1.99678831E-01 1.25653590E-02 1.29475330E-01 6.02479981E-01 7.83165634E-02
 4  2-1.77456684E-01 7.65518860E-02 9.95710239E-03 6.10163649E-02-1.73976281E-01
 4  3 3.66591843E-03-8.13684574E-02 4.50437081E-03-1.31390569E-02-3.36609139E-02
 4  4-2.89041835E-01-7.40497267E-02 1.08279980E-01-2.59205944E-03 1.29259084E-02
 4  5 1.54179159E-02 9.07248671E-03 2.86551688E-02-2.62346614E-02-5.34758114E-03
 4  6-1.74178059E-02-1.77215492E-02-2.19721550E-02-4.14794534E-02 2.22526472E-02
 5  1 1.25653590E-02-5.02429042E-02-1.21635586E-02 7.83165634E-02 1.19071713E-01
 5  2 3.21274793E-02-1.52837931E-02 3.31411645E-03 5.43407714E-03-2.66862616E-02
 5  3-5.38539814E-02-3.57161216E-02-3.73573793E-04 4.66862177E-03-1.05982279E-03
 5  4-3.64540745E-02-2.87003372E-02 8.35794843E-03-1.32702165E-03 1.44123076E-03
 5  5 2.35032353E-03-1.59132692E-02 4.15678580E-03-9.61085255E-03-4.10892875E-04
 5  6 7.33544519E-04 7.55106683E-04 5.56697184E-03-5.88792276E-04 9.52543934E-03
 6  1-1.29475330E-01 1.21635586E-02-5.40093971E-02-1.77456684E-01 3.21274793E-02
 6  2 3.38306947E-01 1.39509026E-01 3.07080707E-02-2.15845543E-02 6.85309594E-02
 6  3-1.36510248E-02-1.26501847E-01 5.08525747E-03-3.05343754E-02-9.97076928E-03
 6  4 1.23731213E-01-2.19521231E-02-1.22696840E-01 8.35780226E-03 2.61114444E-02
 6  5 2.20754125E-02-2.81398062E-02 2.07233179E-02-3.57916386E-02-1.02365819E-02
 6  6-3.00516109E-02-2.62486048E-02 9.41387696E-05-2.56447275E-02 3.64213057E-02
 7  1-1.73976281E-01-2.66862616E-02-6.85309594E-02 7.65518860E-02-1.52837931E-02
 7  2 1.39509026E-01 5.30470500E-01-1.42027556E-01-6.63381919E-02-7.25761465E-02
 7  3-1.82748680E-02 1.91903621E-02-1.37292700E-02 3.35102031E-02 1.33381296E-02
 7  4-3.56796178E-04 1.54655169E-02-1.39899490E-03-7.41655130E-02-1.78386707E-02
 7  5-2.41293292E-02-5.10220670E-03-1.56979822E-02 1.33457037E-02-2.72054109E-01
 7  6 1.67542592E-01-8.18410650E-03 4.93794956E-03 1.92908418E-02-1.68016412E-02
 8  1 3.66591843E-03-5.38539814E-02 1.36510248E-02 9.95710239E-03 3.31411645E-03
 8  2 3.07080707E-02-1.42027556E-01 2.85168386E-01-2.54846730E-01-1.82748680E-02
 8  3-1.71371035E-03 1.61804002E-03 3.93153627E-03 3.03850311E-03-4.09529255E-03
 8  4-1.06516881E-03 9.00456020E-03 1.86985104E-03 8.50244127E-03-1.46129400E-01
 8  5 1.54164256E-01-1.16951528E-03-4.38486948E-03 3.54229869E-03 1.34577663E-01
 8  6-9.91122832E-02 5.67368448E-02 1.90241528E-03 4.66868730E-03-3.34836849E-03
 9  1 8.13684574E-02 3.57161216E-02-1.26501847E-01 6.10163649E-02 5.43407714E-03
 9  2-2.15845543E-02-6.63381919E-02-2.54846730E-01 4.37633642E-01-1.91903621E-02
 9  3-1.61804002E-03-6.36348981E-03-1.07454771E-02-1.30191741E-03 1.09816407E-02
 9  4-4.77471647E-04 4.19086469E-03-7.51450625E-03-5.14752315E-03 1.51986780E-01
 9  5-2.31174522E-01 2.75347016E-04-3.35906870E-03 2.63727735E-03-4.30507925E-02
 9  6 5.90529109E-02-4.83384861E-02 2.28968135E-03 4.74498246E-03-9.77518254E-03
10  1 7.65518860E-02-1.52837931E-02-1.39509026E-01-1.73976281E-01-2.66862616E-02
10  2 6.85309594E-02-7.25761465E-02-1.82748680E-02-1.91903621E-02 5.30470500E-01
10  3-1.42027556E-01 6.63381919E-02-3.56796178E-04 1.54655169E-02 1.39899490E-03
10  4-1.37292700E-02 3.35102031E-02-1.33381296E-02-5.10220670E-03-1.56979822E-02
10  5-1.33457037E-02-7.41655130E-02-1.78386707E-02 2.41293292E-02 4.93794956E-03
10  6 1.92908418E-02 1.68016412E-02-2.72054109E-01 1.67542592E-01 8.18410650E-03
11  1 9.95710239E-03 3.31411645E-03-3.07080707E-02 3.66591843E-03-5.38539814E-02
11  2-1.36510248E-02-1.82748680E-02-1.71371035E-03-1.61804002E-03-1.42027556E-01
11  3 2.85168386E-01 2.54846730E-01-1.06516881E-03 9.00456020E-03-1.86985104E-03
11  4 3.93153627E-03 3.03850311E-03 4.09529255E-03-1.16951528E-03-4.38486948E-03
11  5-3.54229869E-03 8.50244127E-03-1.46129400E-01-1.54164256E-01 1.90241528E-03
11  6 4.66868730E-03 3.34836849E-03 1.34577663E-01-9.91122832E-02-5.67368448E-02
12  1-6.10163649E-02-5.43407714E-03-2.15845543E-02-8.13684574E-02-3.57161216E-02
12  2-1.26501847E-01 1.91903621E-02 1.61804002E-03-6.36348981E-03 6.63381919E-02
12  3 2.54846730E-01 4.37633642E-01 4.77471647E-04-4.19086469E-03-7.51450625E-03
12  4 1.07454771E-02 1.30191741E-03 1.09816407E-02-2.75347016E-04 3.35906870E-03
12  5 2.63727735E-03 5.14752315E-03-1.51986780E-01-2.31174522E-01-2.28968135E-03
12  6-4.74498246E-03-9.77518254E-03 4.30507925E-02-5.90529109E-02-4.83384861E-02
13  1-2.89041835E-01-3.64540745E-02-1.23731213E-01 4.50437081E-03-3.73573793E-04
13  2 5.08525747E-03-1.37292700E-02 3.93153627E-03-1.07454771E-02-3.56796178E-04
13  3-1.06516881E-03 4.77471647E-04 2.99199613E-01 3.57840105E-02 1.27640845E-01
13  4 8.28901573E-04 4.91239943E-04-5.72096553E-04 5.92428565E-04-1.28836399E-04
13  5 7.51424050E-04-2.48501827E-04-1.74467549E-04 2.05313691E-04-2.00174835E-03
13  6-2.32859257E-03 9.20175774E-04 2.52845731E-04 3.17915231E-04-3.16997441E-05
14  1-7.40497267E-02-2.87003372E-02 2.19521231E-02-1.31390569E-02 4.66862177E-03
14  2-3.05343754E-02 3.35102031E-02 3.03850311E-03-1.30191741E-03 1.54655169E-02
14  3 9.00456020E-03-4.19086469E-03 3.57840105E-02 1.75013247E-02 1.41119471E-02
14  4 4.91239943E-04-5.55957189E-03-4.41917302E-04 7.64638913E-04 3.05772761E-03
14  5 2.63017141E-03 2.09603194E-03 3.87797439E-03-2.99514263E-03 4.30833345E-04
14  6-2.51527908E-03-2.61969243E-03-1.35368052E-03-4.37352909E-03 3.38968103E-03
15  1-1.08279980E-01-8.35794843E-03-1.22696840E-01-3.36609139E-02-1.05982279E-03
15  2-9.97076928E-03 1.33381296E-02-4.09529255E-03 1.09816407E-02 1.39899490E-03
15  3-1.86985104E-03-7.51450625E-03 1.27640845E-01 1.41119471E-02 1.29897266E-01
15  4 5.72096553E-04 4.41917302E-04 1.13909791E-03-1.57214257E-03-5.63169268E-04
15  5-6.62150825E-05-1.91448723E-03-6.41667576E-04-6.73762625E-04 2.66827930E-03
15  6 1.76012949E-03-1.01334855E-03-1.90823513E-04 2.73750172E-04-8.25686451E-05
16  1 4.50437081E-03-3.73573793E-04-5.08525747E-03-2.89041835E-01-3.64540745E-02
16  2 1.23731213E-01-3.56796178E-04-1.06516881E-03-4.77471647E-04-1.37292700E-02
16  3 3.93153627E-03 1.07454771E-02 8.28901573E-04 4.91239943E-04 5.72096553E-04
16  4 2.99199613E-01 3.57840105E-02-1.27640845E-01-2.48501827E-04-1.74467549E-04
16  5-2.05313691E-04 5.92428565E-04-1.28836399E-04-7.51424050E-04 2.52845731E-04
16  6 3.17915231E-04 3.16997441E-05-2.00174835E-03-2.32859257E-03-9.20175774E-04
17  1-1.31390569E-02 4.66862177E-03 3.05343754E-02-7.40497267E-02-2.87003372E-02
17  2-2.19521231E-02 1.54655169E-02 9.00456020E-03 4.19086469E-03 3.35102031E-02
17  3 3.03850311E-03 1.30191741E-03 4.91239943E-04-5.55957189E-03 4.41917302E-04
17  4 3.57840105E-02 1.75013247E-02-1.41119471E-02 2.09603194E-03 3.87797439E-03
17  5 2.99514263E-03 7.64638913E-04 3.05772761E-03-2.63017141E-03-1.35368052E-03
17  6-4.37352909E-03-3.38968103E-03 4.30833345E-04-2.51527908E-03 2.61969243E-03
18  1 3.36609139E-02 1.05982279E-03-9.97076928E-03 1.08279980E-01 8.35794843E-03
18  2-1.22696840E-01-1.39899490E-03 1.86985104E-03-7.51450625E-03-1.33381296E-02
18  3 4.09529255E-03 1.09816407E-02-5.72096553E-04-4.41917302E-04 1.13909791E-03
18  4-1.27640845E-01-1.41119471E-02 1.29897266E-01 1.91448723E-03 6.41667576E-04
18  5-6.73762625E-04 1.57214257E-03 5.63169268E-04-6.62150825E-05 1.90823513E-04
18  6-2.73750172E-04-8.25686451E-05-2.66827930E-03-1.76012949E-03-1.01334855E-03
19  1 9.07248671E-03-1.59132692E-02 2.81398062E-02-2.59205944E-03-1.32702165E-03
19  2 8.35780226E-03-7.41655130E-02 8.50244127E-03-5.14752315E-03-5.10220670E-03
19  3-1.16951528E-03-2.75347016E-04 5.92428565E-04 7.64638913E-04-1.57214257E-03
19  4-2.48501827E-04 2.09603194E-03 1.91448723E-03 6.69214369E-02-9.06916620E-03
19  5-7.72743729E-03 2.68997149E-04-9.17691638E-04 5.95794314E-04 4.26209576E-03
19  6 1.63658707E-02-2.32505403E-02 9.90836229E-04 6.67682015E-04-1.03490836E-03
20  1 2.86551688E-02 4.15678580E-03-2.07233179E-02 1.29259084E-02 1.44123076E-03
20  2 2.61114444E-02-1.78386707E-02-1.46129400E-01 1.51986780E-01-1.56979822E-02
20  3-4.38486948E-03 3.35906870E-03-1.28836399E-04 3.05772761E-03-5.63169268E-04
20  4-1.74467549E-04 3.87797439E-03 6.41667576E-04-9.06916620E-03 1.36516507E-01
20  5-1.75133009E-01-9.17691638E-04-3.10679237E-03 2.75118638E-03 1.45497730E-03
20  6 7.44119262E-04 1.52039008E-02 7.90772147E-04 3.82671927E-03-3.63454948E-03
21  1 2.62346614E-02 9.61085255E-03-3.57916386E-02 1.54179159E-02 2.35032353E-03
21  2 2.20754125E-02-2.41293292E-02 1.54164256E-01-2.31174522E-01-1.33457037E-02
21  3-3.54229869E-03 2.63727735E-03 7.51424050E-04 2.63017141E-03-6.62150825E-05
21  4-2.05313691E-04 2.99514263E-03-6.73762625E-04-7.72743729E-03-1.75133009E-01
21  5 2.44170040E-01-5.95794314E-04-2.75118638E-03 1.88845442E-03 2.47677196E-03
21  6 6.59780233E-03 6.82126019E-05 1.12279938E-03 3.07793862E-03-3.13324622E-03
22  1-2.59205944E-03-1.32702165E-03-8.35780226E-03 9.07248671E-03-1.59132692E-02
22  2-2.81398062E-02-5.10220670E-03-1.16951528E-03 2.75347016E-04-7.41655130E-02
22  3 8.50244127E-03 5.14752315E-03-2.48501827E-04 2.09603194E-03-1.91448723E-03
22  4 5.92428565E-04 7.64638913E-04 1.57214257E-03 2.68997149E-04-9.17691638E-04
22  5-5.95794314E-04 6.69214369E-02-9.06916620E-03 7.72743729E-03 9.90836229E-04
22  6 6.67682015E-04 1.03490836E-03 4.26209576E-03 1.63658707E-02 2.32505403E-02
23  1 1.29259084E-02 1.44123076E-03-2.61114444E-02 2.86551688E-02 4.15678580E-03
23  2 2.07233179E-02-1.56979822E-02-4.38486948E-03-3.35906870E-03-1.78386707E-02
23  3-1.46129400E-01-1.51986780E-01-1.74467549E-04 3.87797439E-03-6.41667576E-04
23  4-1.28836399E-04 3.05772761E-03 5.63169268E-04-9.17691638E-04-3.10679237E-03
23  5-2.75118638E-03-9.06916620E-03 1.36516507E-01 1.75133009E-01 7.90772147E-04
23  6 3.82671927E-03 3.63454948E-03 1.45497730E-03 7.44119262E-04-1.52039008E-02
24  1-1.54179159E-02-2.35032353E-03 2.20754125E-02-2.62346614E-02-9.61085255E-03
24  2-3.57916386E-02 1.33457037E-02 3.54229869E-03 2.63727735E-03 2.41293292E-02
24  3-1.54164256E-01-2.31174522E-01 2.05313691E-04-2.99514263E-03-6.73762625E-04
24  4-7.51424050E-04-2.63017141E-03-6.62150825E-05 5.95794314E-04 2.75118638E-03
24  5 1.88845442E-03 7.72743729E-03 1.75133009E-01 2.44170040E-01-1.12279938E-03
24  6-3.07793862E-03-3.13324622E-03-2.47677196E-03-6.59780233E-03 6.82126019E-05
25  1-2.19721550E-02 5.56697184E-03-9.41387696E-05-5.34758114E-03-4.10892875E-04
25  2-1.02365819E-02-2.72054109E-01 1.34577663E-01-4.30507925E-02 4.93794956E-03
25  3 1.90241528E-03-2.28968135E-03-2.00174835E-03 4.30833345E-04 2.66827930E-03
25  4 2.52845731E-04-1.35368052E-03 1.90823513E-04 4.26209576E-03 1.45497730E-03
25  5 2.47677196E-03 9.90836229E-04 7.90772147E-04-1.12279938E-03 2.88942111E-01
25  6-1.41389528E-01 5.20392699E-02 1.98975098E-03-1.56952152E-03-5.81146764E-04
26  1-4.14794534E-02-5.88792276E-04 2.56447275E-02-1.74178059E-02 7.33544519E-04
26  2-3.00516109E-02 1.67542592E-01-9.91122832E-02 5.90529109E-02 1.92908418E-02
26  3 4.66868730E-03-4.74498246E-03-2.32859257E-03-2.51527908E-03 1.76012949E-03
26  4 3.17915231E-04-4.37352909E-03-2.73750172E-04 1.63658707E-02 7.44119262E-04
26  5 6.59780233E-03 6.67682015E-04 3.82671927E-03-3.07793862E-03-1.41389528E-01
26  6 9.99244261E-02-5.95256229E-02-1.56952152E-03-3.30761658E-03 4.61833315E-03
27  1-2.22526472E-02-9.52543934E-03 3.64213057E-02-1.77215492E-02 7.55106683E-04
27  2-2.62486048E-02-8.18410650E-03 5.67368448E-02-4.83384861E-02 1.68016412E-02
27  3 3.34836849E-03-9.77518254E-03 9.20175774E-04-2.61969243E-03-1.01334855E-03
27  4 3.16997441E-05-3.38968103E-03-8.25686451E-05-2.32505403E-02 1.52039008E-02
27  5 6.82126019E-05 1.03490836E-03 3.63454948E-03-3.13324622E-03 5.20392699E-02
27  6-5.95256229E-02 5.43946916E-02 5.81146764E-04-4.61833315E-03-2.29276753E-03
28  1-5.34758114E-03-4.10892875E-04 1.02365819E-02-2.19721550E-02 5.56697184E-03
28  2 9.41387696E-05 4.93794956E-03 1.90241528E-03 2.28968135E-03-2.72054109E-01
28  3 1.34577663E-01 4.30507925E-02 2.52845731E-04-1.35368052E-03-1.90823513E-04
28  4-2.00174835E-03 4.30833345E-04-2.66827930E-03 9.90836229E-04 7.90772147E-04
28  5 1.12279938E-03 4.26209576E-03 1.45497730E-03-2.47677196E-03 1.98975098E-03
28  6-1.56952152E-03 5.81146764E-04 2.88942111E-01-1.41389528E-01-5.20392699E-02
29  1-1.74178059E-02 7.33544519E-04 3.00516109E-02-4.14794534E-02-5.88792276E-04
29  2-2.56447275E-02 1.92908418E-02 4.66868730E-03 4.74498246E-03 1.67542592E-01
29  3-9.91122832E-02-5.90529109E-02 3.17915231E-04-4.37352909E-03 2.73750172E-04
29  4-2.32859257E-03-2.51527908E-03-1.76012949E-03 6.67682015E-04 3.82671927E-03
29  5 3.07793862E-03 1.63658707E-02 7.44119262E-04-6.59780233E-03-1.56952152E-03
29  6-3.30761658E-03-4.61833315E-03-1.41389528E-01 9.99244261E-02 5.95256229E-02
30  1 1.77215492E-02-7.55106683E-04-2.62486048E-02 2.22526472E-02 9.52543934E-03
30  2 3.64213057E-02-1.68016412E-02-3.34836849E-03-9.77518254E-03 8.18410650E-03
30  3-5.67368448E-02-4.83384861E-02-3.16997441E-05 3.38968103E-03-8.25686451E-05
30  4-9.20175774E-04 2.61969243E-03-1.01334855E-03-1.03490836E-03-3.63454948E-03
30  5-3.13324622E-03 2.32505403E-02-1.52039008E-02 6.82126019E-05-5.81146764E-04
30  6 4.61833315E-03-2.29276753E-03-5.20392699E-02 5.95256229E-02 5.43946916E-02
 $END
 $DIPDR
  1.06472024E-01 2.50928033E-01 4.66855643E-01
  2.71611527E-01-8.80962741E-01 1.02760588E-01
  5.65332107E-01-1.26625807E-02 3.03679042E-01
  1.06472024E-01 2.50928033E-01-4.66855643E-01
  2.71611527E-01-8.80962741E-01-1.02760588E-01
 -5.65332107E-01 1.26625807E-02 3.03679042E-01
  1.97058010E-01-4.14666846E-01-1.47978678E-01
 -3.29964794E-01-3.13911434E-01-1.13800225E+00
 -2.98367297E-01-1.22372001E+00 1.12107754E-01
  1.97058010E-01-4.14666846E-01 1.47978678E-01
 -3.29964794E-01-3.13911434E-01 1.13800225E+00
  2.98367297E-01 1.22372001E+00 1.12107754E-01
 -3.52088223E-01-1.02107412E-01-3.50000492E-01
 -2.12218083E-01 7.09036288E-01 3.57217183E-02
 -1.74580125E-01-9.09545185E-03-5.49219517E-02
 -3.52088223E-01-1.02107412E-01 3.50000492E-01
 -2.12218083E-01 7.09036288E-01-3.57217183E-02
  1.74580125E-01 9.09545185E-03-5.49219517E-02
  1.33470782E-01 8.51129835E-02 1.10874395E-01
  5.56118353E-02 7.77674645E-02 7.06857865E-01
  3.09211250E-01 6.33683934E-01-6.39484676E-01
  1.33470782E-01 8.51129835E-02-1.10874395E-01
  5.56118353E-02 7.77674645E-02-7.06857865E-01
 -3.09211250E-01-6.33683934E-01-6.39484676E-01
 -8.49121296E-02 1.80734009E-01 6.68194828E-03
  2.14959540E-01 4.08070388E-01 3.00960388E-01
 -6.93884117E-02 3.52133711E-01 2.78620170E-01
 -8.49121296E-02 1.80734009E-01-6.68194828E-03
  2.14959540E-01 4.08070388E-01-3.00960388E-01
  6.93884117E-02-3.52133711E-01 2.78620170E-01
 $END
