 $CONTRL runtyp=sadpoint UNITS=ANGS mplevl=2 
 ispher=1
 $END
 $basis gbasis=ccd $end
 $statpt nstep=100 hssend=.t.  ifolow=1 hess=calc
! ihrep=3
 $end
 $DATA

 c1
 C           6.0   0.2642359360  -1.4309335937  -0.2523202968
 C           6.0   0.1970183299  -0.2837785847   0.3775331574
 C           6.0  -1.0155537066   0.6125703758   0.3788112481
 C           6.0  -1.0818108284   1.7574362218  -0.2552232382
 H           1.0   1.1570929514  -2.0407920759  -0.2328919433
 H           1.0  -0.5621258735  -1.8232604858  -0.8299601867
 H           1.0   1.0547639303   0.0759404075   0.9385819343
 H           1.0  -1.8707955304   0.2574766923   0.9466928150
 H           1.0  -1.9709232082   2.3727166926  -0.2340665552
 H           1.0  -0.2559020003   2.1426243502  -0.8371569346
 $end
