 $CONTRL SCFTYP=RHF 
 RUNTYP=vscf 
! RUNTYP=optimize
 mplevl=0
 $END
 $vscf 
! ngrid=0 
 READV=.TRUE. 
! IEXC=1
 $end

! $mp2 mp2prp=.t. $end
 $SYSTEM TIMLIM=500 MEMORY=3000000 $END
 $DATA
 NH3  vibscf simulation 
 Cnv 3

 N           7.0   0.0000000000   0.0000000000   0.5797160332
 H           1.0   0.9316306796   0.0000000000   0.9500177343
 $END
 $GUESS  GUESS=HUCKEL $END
 $CONTRL ICUT=20 ITOL=30 INTTYP=HONDO $END
 $statpt hssend=.t. $end
 $force nvib=2 $end
 $basis gbasis=n31 ngauss=6 ndfunc=1 $end
 $SCF    NCONV=6 FDIFF=.FALSE. $END
 $HESS
ENERGY IS      -56.1843563424 E(NUC) IS       12.0685437610
 1  1 7.41827295E-01 5.55111512E-17-2.62953635E-31-1.62233730E-01 1.47297126E-01
 1  2 9.82850017E-02-1.62233730E-01-1.47297126E-01 9.82850017E-02-4.17359835E-01
 1  3 0.00000000E+00-1.96570003E-01
 2  1 0.00000000E+00 7.41827295E-01-4.55449056E-31 1.47297126E-01-3.32317800E-01
 2  2-1.70234617E-01-1.47297126E-01-3.32317800E-01 1.70234617E-01 0.00000000E+00
 2  3-7.71916943E-02 0.00000000E+00
 3  1-2.62953635E-31-4.55449056E-31 2.66201335E-01 6.64029812E-02-1.15013337E-01
 3  2-8.87337782E-02 6.64029812E-02 1.15013337E-01-8.87337782E-02-1.32805962E-01
 3  3 0.00000000E+00-8.87337782E-02
 4  1-1.62233730E-01 1.47297126E-01 6.64029812E-02 1.67618305E-01-1.65602019E-01
 4  2-7.74308253E-02 1.31602143E-02-2.17718770E-02-9.82633241E-03-1.85447900E-02
 4  3 4.00767697E-02 2.08541764E-02
 5  1 1.47297126E-01-3.32317800E-01-1.15013337E-01-1.65602019E-01 3.58839045E-01
 5  2 1.34114123E-01 2.17718770E-02-2.91131248E-02-1.84070931E-02-3.46698418E-03
 5  3 2.59187951E-03-6.93693065E-04
 6  1 9.82850017E-02-1.70234617E-01-8.87337782E-02-7.74308253E-02 1.34114123E-01
 6  2 8.16666509E-02-9.82633241E-03 1.84070931E-02 3.53356367E-03-1.10278440E-02
 6  3 1.77134000E-02 3.53356367E-03
 7  1-1.62233730E-01-1.47297126E-01 6.64029812E-02 1.31602143E-02 2.17718770E-02
 7  2-9.82633241E-03 1.67618305E-01 1.65602019E-01-7.74308253E-02-1.85447900E-02
 7  3-4.00767697E-02 2.08541764E-02
 8  1-1.47297126E-01-3.32317800E-01 1.15013337E-01-2.17718770E-02-2.91131248E-02
 8  2 1.84070931E-02 1.65602019E-01 3.58839045E-01-1.34114123E-01 3.46698418E-03
 8  3 2.59187951E-03 6.93693065E-04
 9  1 9.82850017E-02 1.70234617E-01-8.87337782E-02-9.82633241E-03-1.84070931E-02
 9  2 3.53356367E-03-7.74308253E-02-1.34114123E-01 8.16666509E-02-1.10278440E-02
 9  3-1.77134000E-02 3.53356367E-03
10  1-4.17359835E-01 0.00000000E+00-1.32805962E-01-1.85447900E-02-3.46698418E-03
10  2-1.10278440E-02-1.85447900E-02 3.46698418E-03-1.10278440E-02 4.54449415E-01
10  3 0.00000000E+00 1.54861651E-01
11  1 0.00000000E+00-7.71916943E-02 0.00000000E+00 4.00767697E-02 2.59187951E-03
11  2 1.77134000E-02-4.00767697E-02 2.59187951E-03-1.77134000E-02 0.00000000E+00
11  3 7.20079353E-02 0.00000000E+00
12  1-1.96570003E-01 0.00000000E+00-8.87337782E-02 2.08541764E-02-6.93693065E-04
12  2 3.53356367E-03 2.08541764E-02 6.93693065E-04 3.53356367E-03 1.54861651E-01
12  3 0.00000000E+00 8.16666509E-02
 $END
 $VIBSCF PETYP= DIRECT
   E0=      -56.1843563413   DIPOLE=    0.00000000    0.00000000    1.92013160
MODE=  12
 GRID=   1
   DIAGV=        0.1626260732 DIPOLE=    0.11317877   -0.06705715    1.88137707
MODE=  12
 GRID=   2
   DIAGV=        0.1157653594 DIPOLE=    0.08608137   -0.05214034    1.89021917
MODE=  12
 GRID=   3
   DIAGV=        0.0791247309 DIPOLE=    0.06230111   -0.03967724    1.89821798
MODE=  12
 GRID=   4
   DIAGV=        0.0509407828 DIPOLE=    0.04208474   -0.02937277    1.90518232
MODE=  12
 GRID=   5
   DIAGV=        0.0298619235 DIPOLE=    0.02564465   -0.02089056    1.91095154
MODE=  12
 GRID=   6
   DIAGV=        0.0148783142 DIPOLE=    0.01315600   -0.01386090    1.91539500
MODE=  12
 GRID=   7
   DIAGV=        0.0052717187 DIPOLE=    0.00475359   -0.00788820    1.91841361
MODE=  12
 GRID=   8
   DIAGV=        0.0005810959 DIPOLE=    0.00052915   -0.00255759    1.91993996
MODE=  12
 GRID=   9
   DIAGV=        0.0005810959 DIPOLE=    0.00052913    0.00255762    1.91994009
MODE=  12
 GRID=  10
   DIAGV=        0.0052717192 DIPOLE=    0.00475351    0.00788825    1.91841393
MODE=  12
 GRID=  11
   DIAGV=        0.0148783169 DIPOLE=    0.01315587    0.01386097    1.91539542
MODE=  12
 GRID=  12
   DIAGV=        0.0298619311 DIPOLE=    0.02564457    0.02089058    1.91095167
MODE=  12
 GRID=  13
   DIAGV=        0.0509407994 DIPOLE=    0.04208468    0.02937283    1.90518248
MODE=  12
 GRID=  14
   DIAGV=        0.0791247624 DIPOLE=    0.06230107    0.03967732    1.89821816
MODE=  12
 GRID=  15
   DIAGV=        0.1157654137 DIPOLE=    0.08608136    0.05214046    1.89021937
MODE=  12
 GRID=  16
   DIAGV=        0.1626261610 DIPOLE=    0.11317879    0.06705725    1.88137709
MODE=  11
 GRID=   1
   DIAGV=        0.2172283397 DIPOLE=   -0.18345943    0.00000000    1.88740597
MODE=  11
 GRID=   2
   DIAGV=        0.1493735371 DIPOLE=   -0.14014174   -0.00000003    1.89404519
MODE=  11
 GRID=   3
   DIAGV=        0.0985439692 DIPOLE=   -0.10300496   -0.00000002    1.90048779
MODE=  11
 GRID=   4
   DIAGV=        0.0611705284 DIPOLE=   -0.07193208   -0.00000001    1.90640485
MODE=  11
 GRID=   5
   DIAGV=        0.0345291398 DIPOLE=   -0.04671266   -0.00000001    1.91151940
MODE=  11
 GRID=   6
   DIAGV=        0.0165407980 DIPOLE=   -0.02706371    0.00000000    1.91560015
MODE=  11
 GRID=   7
   DIAGV=        0.0056254510 DIPOLE=   -0.01264787    0.00000000    1.91845767
MODE=  11
 GRID=   8
   DIAGV=        0.0005940999 DIPOLE=   -0.00308681    0.00000000    1.91994159
MODE=  11
 GRID=   9
   DIAGV=        0.0005680919 DIPOLE=    0.00202841    0.00000000    1.91993846
MODE=  11
 GRID=  10
   DIAGV=        0.0049180638 DIPOLE=    0.00312869    0.00000000    1.91836991
MODE=  11
 GRID=  11
   DIAGV=        0.0132175038 DIPOLE=    0.00065962   -0.00000001    1.91519080
MODE=  11
 GRID=  12
   DIAGV=        0.0252075678 DIPOLE=   -0.00492362   -0.00000002    1.91038736
MODE=  11
 GRID=  13
   DIAGV=        0.0407708159 DIPOLE=   -0.01315876   -0.00000003    1.90397523
MODE=  11
 GRID=  14
   DIAGV=        0.0599121314 DIPOLE=   -0.02357623   -0.00000004    1.89599859
MODE=  11
 GRID=  15
   DIAGV=        0.0827454424 DIPOLE=   -0.03569759   -0.00000006    1.88652703
MODE=  11
 GRID=  16
   DIAGV=        0.1094851267 DIPOLE=   -0.04903310   -0.00000008    1.87565417
MODE=  10
 GRID=   1
   DIAGV=        0.2058503539 DIPOLE=   -0.00000001    0.00000000    1.84222549
MODE=  10
 GRID=   2
   DIAGV=        0.1441093247 DIPOLE=    0.00000000    0.00000000    1.85749825
MODE=  10
 GRID=   3
   DIAGV=        0.0963290794 DIPOLE=    0.00000000    0.00000000    1.87129580
MODE=  10
 GRID=   4
   DIAGV=        0.0602991607 DIPOLE=    0.00000000    0.00000000    1.88363634
MODE=  10
 GRID=   5
   DIAGV=        0.0341605176 DIPOLE=    0.00000000    0.00000000    1.89450995
MODE=  10
 GRID=   6
   DIAGV=        0.0163447228 DIPOLE=    0.00000000    0.00000000    1.90387497
MODE=  10
 GRID=   7
   DIAGV=        0.0055250511 DIPOLE=    0.00000000    0.00000000    1.91165760
MODE=  10
 GRID=   8
   DIAGV=        0.0005767595 DIPOLE=    0.00000000    0.00000000    1.91775449
MODE=  10
 GRID=   9
   DIAGV=        0.0005445515 DIPOLE=    0.00000000    0.00000000    1.92203779
MODE=  10
 GRID=  10
   DIAGV=        0.0046157147 DIPOLE=    0.00000000    0.00000000    1.92436193
MODE=  10
 GRID=  11
   DIAGV=        0.0120978107 DIPOLE=    0.00000000    0.00000000    1.92457155
MODE=  10
 GRID=  12
   DIAGV=        0.0224000852 DIPOLE=    0.00000000    0.00000000    1.92251022
MODE=  10
 GRID=  13
   DIAGV=        0.0350179625 DIPOLE=    0.00000000    0.00000000    1.91802946
MODE=  10
 GRID=  14
   DIAGV=        0.0495201269 DIPOLE=    0.00000000    0.00000000    1.91099779
MODE=  10
 GRID=  15
   DIAGV=        0.0655377800 DIPOLE=    0.00000000    0.00000000    1.90130937
MODE=  10
 GRID=  16
   DIAGV=        0.0827557206 DIPOLE=    0.00000000    0.00000000    1.88889207
MODE=   9
 GRID=   1
   DIAGV=        0.0673837742 DIPOLE=   -0.36875258   -0.00000005    1.91056698
MODE=   9
 GRID=   2
   DIAGV=        0.0504624422 DIPOLE=   -0.31717513   -0.00000004    1.91207673
MODE=   9
 GRID=   3
   DIAGV=        0.0359355730 DIPOLE=   -0.26645644   -0.00000003    1.91367107
MODE=   9
 GRID=   4
   DIAGV=        0.0238786970 DIPOLE=   -0.21684584   -0.00000003    1.91531478
MODE=   9
 GRID=   5
   DIAGV=        0.0143155434 DIPOLE=   -0.16827017   -0.00000002    1.91691034
MODE=   9
 GRID=   6
   DIAGV=        0.0072293253 DIPOLE=   -0.12041069   -0.00000001    1.91832892
MODE=   9
 GRID=   7
   DIAGV=        0.0025736586 DIPOLE=   -0.07274170   -0.00000001    1.91942516
MODE=   9
 GRID=   8
   DIAGV=        0.0002826098 DIPOLE=   -0.02455426    0.00000000    1.92004657
MODE=   9
 GRID=   9
   DIAGV=        0.0002791832 DIPOLE=    0.02502159    0.00000000    1.92004031
MODE=   9
 GRID=  10
   DIAGV=        0.0024815246 DIPOLE=    0.07699230    0.00000001    1.91925344
MODE=   9
 GRID=  11
   DIAGV=        0.0068062938 DIPOLE=    0.13246996    0.00000001    1.91752836
MODE=   9
 GRID=  12
   DIAGV=        0.0131690400 DIPOLE=    0.19263342    0.00000002    1.91469351
MODE=   9
 GRID=  13
   DIAGV=        0.0214819055 DIPOLE=    0.25867664    0.00000002    1.91055130
MODE=   9
 GRID=  14
   DIAGV=        0.0316494430 DIPOLE=    0.33174406    0.00000002    1.90486713
MODE=   9
 GRID=  15
   DIAGV=        0.0435635978 DIPOLE=    0.41285471    0.00000003    1.89736432
MODE=   9
 GRID=  16
   DIAGV=        0.0570989106 DIPOLE=    0.50282250    0.00000003    1.88772459
MODE=   8
 GRID=   1
   DIAGV=        0.0620040712 DIPOLE=   -0.05277838   -0.43939634    1.89869431
MODE=   8
 GRID=   2
   DIAGV=        0.0469027822 DIPOLE=   -0.03997472   -0.36674145    1.90452219
MODE=   8
 GRID=   3
   DIAGV=        0.0337486647 DIPOLE=   -0.02867857   -0.29983965    1.90919502
MODE=   8
 GRID=   4
   DIAGV=        0.0226662220 DIPOLE=   -0.01916055   -0.23803047    1.91291068
MODE=   8
 GRID=   5
   DIAGV=        0.0137389975 DIPOLE=   -0.01154548   -0.18052813    1.91579697
MODE=   8
 GRID=   6
   DIAGV=        0.0070173533 DIPOLE=   -0.00586518   -0.12645448    1.91792789
MODE=   8
 GRID=   7
   DIAGV=        0.0025275697 DIPOLE=   -0.00210405   -0.07486806    1.91933919
MODE=   8
 GRID=   8
   DIAGV=        0.0002808965 DIPOLE=   -0.00023337   -0.02478790    1.92004337
MODE=   8
 GRID=   9
   DIAGV=        0.0002808965 DIPOLE=   -0.00023336    0.02478799    1.92004349
MODE=   8
 GRID=  10
   DIAGV=        0.0025275697 DIPOLE=   -0.00210403    0.07486815    1.91933939
MODE=   8
 GRID=  11
   DIAGV=        0.0070173532 DIPOLE=   -0.00586518    0.12645453    1.91792799
MODE=   8
 GRID=  12
   DIAGV=        0.0137389972 DIPOLE=   -0.01154551    0.18052814    1.91579710
MODE=   8
 GRID=  13
   DIAGV=        0.0226662213 DIPOLE=   -0.01916063    0.23803042    1.91291088
MODE=   8
 GRID=  14
   DIAGV=        0.0337486634 DIPOLE=   -0.02867867    0.29983956    1.90919532
MODE=   8
 GRID=  15
   DIAGV=        0.0469027802 DIPOLE=   -0.03997478    0.36674134    1.90452265
MODE=   8
 GRID=  16
   DIAGV=        0.0620040682 DIPOLE=   -0.05277824    0.43939622    1.89869475
MODE=   7
 GRID=   1
   DIAGV=        0.0224495385 DIPOLE=   -0.00000007   -0.00000025   -0.09383275
MODE=   7
 GRID=   2
   DIAGV=        0.0174356786 DIPOLE=    0.00000000    0.00000000    0.20955915
MODE=   7
 GRID=   3
   DIAGV=        0.0131861347 DIPOLE=    0.00000000    0.00000000    0.51311012
MODE=   7
 GRID=   4
   DIAGV=        0.0095052547 DIPOLE=    0.00000000    0.00000000    0.80947451
MODE=   7
 GRID=   5
   DIAGV=        0.0062862921 DIPOLE=    0.00000000    0.00000000    1.09232172
MODE=   7
 GRID=   6
   DIAGV=        0.0035410864 DIPOLE=    0.00000000    0.00000000    1.35677602
MODE=   7
 GRID=   7
   DIAGV=        0.0014135335 DIPOLE=    0.00000000    0.00000000    1.59961694
MODE=   7
 GRID=   8
   DIAGV=        0.0001737253 DIPOLE=    0.00000000    0.00000000    1.81920624
MODE=   7
 GRID=   9
   DIAGV=        0.0001937750 DIPOLE=    0.00000000    0.00000000    2.01518891
MODE=   7
 GRID=  10
   DIAGV=        0.0019096189 DIPOLE=    0.00000000    0.00000000    2.18807604
MODE=   7
 GRID=  11
   DIAGV=        0.0057749414 DIPOLE=    0.00000000    0.00000000    2.33882663
MODE=   7
 GRID=  12
   DIAGV=        0.0122138280 DIPOLE=    0.00000000    0.00000000    2.46851146
MODE=   7
 GRID=  13
   DIAGV=        0.0215780474 DIPOLE=    0.00000000    0.00000000    2.57809611
MODE=   7
 GRID=  14
   DIAGV=        0.0341131476 DIPOLE=    0.00000000    0.00000000    2.66834489
MODE=   7
 GRID=  15
   DIAGV=        0.0499351132 DIPOLE=    0.00000000    0.00000000    2.73982869
MODE=   7
 GRID=  16
   DIAGV=        0.0690168628 DIPOLE=    0.00000000    0.00000000    2.79300622
MODE=  12  11
 GRID=   1   1
   COUPV=       -0.1070314872 DIPOLE=   -0.08813844    0.12651547    1.83900223
MODE=  12  11
 GRID=   1   2
   COUPV=       -0.0974847586 DIPOLE=   -0.04380984    0.10661305    1.84628630
MODE=  12  11
 GRID=   1   3
   COUPV=       -0.0868394048 DIPOLE=   -0.00526707    0.08470311    1.85348864
MODE=  12  11
 GRID=   1   4
   COUPV=       -0.0749227485 DIPOLE=    0.02763705    0.06084592    1.86032693
MODE=  12  11
 GRID=   1   5
   COUPV=       -0.0615463734 DIPOLE=    0.05512928    0.03514345    1.86657131
MODE=  12  11
 GRID=   1   6
   COUPV=       -0.0465021464 DIPOLE=    0.07749506    0.00773524    1.87203556
MODE=  12  11
 GRID=   1   7
   COUPV=       -0.0295579941 DIPOLE=    0.09505997   -0.02120701    1.87656995
MODE=  12  11
 GRID=   1   8
   COUPV=       -0.0104532164 DIPOLE=    0.10817542   -0.05148498    1.88005615
MODE=  12  11
 GRID=   1   9
   COUPV=        0.0111068491 DIPOLE=    0.11720781   -0.08287922    1.88240348
MODE=  12  11
 GRID=   1  10
   COUPV=        0.0354570046 DIPOLE=    0.12253006   -0.11515446    1.88354619
MODE=  12  11
 GRID=   1  11
   COUPV=        0.0629794201 DIPOLE=    0.12451569   -0.14806536    1.88344141
MODE=  12  11
 GRID=   1  12
   COUPV=        0.0941121434 DIPOLE=    0.12353621   -0.18136288    1.88206812
MODE=  12  11
 GRID=   1  13
   COUPV=        0.1293591518 DIPOLE=    0.11996250   -0.21480158    1.87942654
MODE=  12  11
 GRID=   1  14
   COUPV=        0.1693022452 DIPOLE=    0.11416985   -0.24814767    1.87553775
MODE=  12  11
 GRID=   1  15
   COUPV=        0.2146151379 DIPOLE=    0.10654596   -0.28118767    1.87044358
MODE=  12  11
 GRID=   1  16
   COUPV=        0.2660801950 DIPOLE=    0.09750011   -0.31373621    1.86420534
MODE=  12  11
 GRID=   2   1
   COUPV=       -0.0765503114 DIPOLE=   -0.11065038    0.11613538    1.85030096
MODE=  12  11
 GRID=   2   2
   COUPV=       -0.0697020340 DIPOLE=   -0.06662002    0.09883501    1.85743685
MODE=  12  11
 GRID=   2   3
   COUPV=       -0.0620730880 DIPOLE=   -0.02846820    0.07979852    1.86445621
MODE=  12  11
 GRID=   2   4
   COUPV=       -0.0535400985 DIPOLE=    0.00394683    0.05907214    1.87106533
MODE=  12  11
 GRID=   2   5
   COUPV=       -0.0439688103 DIPOLE=    0.03084933    0.03673927    1.87702265
MODE=  12  11
 GRID=   2   6
   COUPV=       -0.0332113403 DIPOLE=    0.05252532    0.01291701    1.88213083
MODE=  12  11
 GRID=   2   7
   COUPV=       -0.0211032977 DIPOLE=    0.06930425   -0.01224876    1.88623020
MODE=  12  11
 GRID=   2   8
   COUPV=       -0.0074606119 DIPOLE=    0.08154511   -0.03858844    1.88919422
MODE=  12  11
 GRID=   2   9
   COUPV=        0.0079240659 DIPOLE=    0.08962577   -0.06591360    1.89092614
MODE=  12  11
 GRID=   2  10
   COUPV=        0.0252855265 DIPOLE=    0.09393450   -0.09402166    1.89135653
MODE=  12  11
 GRID=   2  11
   COUPV=        0.0448908791 DIPOLE=    0.09486348   -0.12270066    1.89044147
MODE=  12  11
 GRID=   2  12
   COUPV=        0.0670453045 DIPOLE=    0.09280531   -0.15173434    1.88816157
MODE=  12  11
 GRID=   2  13
   COUPV=        0.0920988627 DIPOLE=    0.08815262   -0.18090755    1.88452125
MODE=  12  11
 GRID=   2  14
   COUPV=        0.1204545505 DIPOLE=    0.08130167   -0.21001262    1.87954914
MODE=  12  11
 GRID=   2  15
   COUPV=        0.1525778344 DIPOLE=    0.07265777   -0.23885516    1.87329772
MODE=  12  11
 GRID=   2  16
   COUPV=        0.1890079210 DIPOLE=    0.06264240   -0.26725976    1.86584240
MODE=  12  11
 GRID=   3   1
   COUPV=       -0.0525518802 DIPOLE=   -0.13056463    0.10298550    1.86036595
MODE=  12  11
 GRID=   3   2
   COUPV=       -0.0478385863 DIPOLE=   -0.08676867    0.08831519    1.86737034
MODE=  12  11
 GRID=   3   3
   COUPV=       -0.0425925759 DIPOLE=   -0.04893298    0.07218155    1.87423150
MODE=  12  11
 GRID=   3   4
   COUPV=       -0.0367291529 DIPOLE=   -0.01692151    0.05461854    1.88064576
MODE=  12  11
 GRID=   3   5
   COUPV=       -0.0301563284 DIPOLE=    0.00948702    0.03569281    1.88636152
MODE=  12  11
 GRID=   3   6
   COUPV=       -0.0227729880 DIPOLE=    0.03057837    0.01550043    1.89117185
MODE=  12  11
 GRID=   3   7
   COUPV=       -0.0144669996 DIPOLE=    0.04668458   -0.00583740    1.89490867
MODE=  12  11
 GRID=   3   8
   COUPV=       -0.0051131482 DIPOLE=    0.05817044   -0.02817888    1.89743856
MODE=  12  11
 GRID=   3   9
   COUPV=        0.0054291958 DIPOLE=    0.06542304   -0.05136600    1.89865985
MODE=  12  11
 GRID=   3  10
   COUPV=        0.0173187701 DIPOLE=    0.06884332   -0.07522850    1.89850006
MODE=  12  11
 GRID=   3  11
   COUPV=        0.0307355794 DIPOLE=    0.06883922   -0.09958847    1.89691493
MODE=  12  11
 GRID=   3  12
   COUPV=        0.0458846359 DIPOLE=    0.06582185   -0.12426363    1.89388579
MODE=  12  11
 GRID=   3  13
   COUPV=        0.0630004019 DIPOLE=    0.06020402   -0.14907243    1.88941971
MODE=  12  11
 GRID=   3  14
   COUPV=        0.0823520692 DIPOLE=    0.05240243   -0.17383871    1.88355012
MODE=  12  11
 GRID=   3  15
   COUPV=        0.1042498164 DIPOLE=    0.04284141   -0.19839531    1.87633536
MODE=  12  11
 GRID=   3  16
   COUPV=        0.1290522075 DIPOLE=    0.03195822   -0.22258809    1.86785843
MODE=  12  11
 GRID=   4   1
   COUPV=       -0.0339656220 DIPOLE=   -0.14761293    0.08748087    1.86903305
MODE=  12  11
 GRID=   4   2
   COUPV=       -0.0309127669 DIPOLE=   -0.10399478    0.07546062    1.87592318
MODE=  12  11
 GRID=   4   3
   COUPV=       -0.0275174709 DIPOLE=   -0.06640714    0.06224842    1.88265008
MODE=  12  11
 GRID=   4   4
   COUPV=       -0.0237249658 DIPOLE=   -0.03471946    0.04786839    1.88890179
MODE=  12  11
 GRID=   4   5
   COUPV=       -0.0194758394 DIPOLE=   -0.00871349    0.03237213    1.89441824
MODE=  12  11
 GRID=   4   6
   COUPV=       -0.0147048770 DIPOLE=    0.01189587    0.01583597    1.89898453
MODE=  12  11
 GRID=   4   7
   COUPV=       -0.0093398831 DIPOLE=    0.02744250   -0.00164261    1.90242556
MODE=  12  11
 GRID=   4   8
   COUPV=       -0.0033004098 DIPOLE=    0.03829567   -0.01994886    1.90460230
MODE=  12  11
 GRID=   4   9
   COUPV=        0.0035036696 DIPOLE=    0.04484979   -0.03895432    1.90540898
MODE=  12  11
 GRID=   4  10
   COUPV=        0.0111738038 DIPOLE=    0.04751575   -0.05852087    1.90477161
MODE=  12  11
 GRID=   4  11
   COUPV=        0.0198246932 DIPOLE=    0.04671447   -0.07850333    1.90264481
MODE=  12  11
 GRID=   4  12
   COUPV=        0.0295865822 DIPOLE=    0.04287214   -0.09875365    1.89901127
MODE=  12  11
 GRID=   4  13
   COUPV=        0.0406079970 DIPOLE=    0.03641850   -0.11912430    1.89388046
MODE=  12  11
 GRID=   4  14
   COUPV=        0.0530590168 DIPOLE=    0.02778814   -0.13947206    1.88728915
MODE=  12  11
 GRID=   4  15
   COUPV=        0.0671351696 DIPOLE=    0.01742309   -0.15966048    1.87929929
MODE=  12  11
 GRID=   4  16
   COUPV=        0.0830620529 DIPOLE=    0.00577674   -0.17956250    1.86999797
MODE=  12  11
 GRID=   5   1
   COUPV=       -0.0199765605 DIPOLE=   -0.16155823    0.07004524    1.87615675
MODE=  12  11
 GRID=   5   2
   COUPV=       -0.0181778944 DIPOLE=   -0.11806919    0.06068771    1.88295141
MODE=  12  11
 GRID=   5   3
   COUPV=       -0.0161787689 DIPOLE=   -0.08066860    0.05040731    1.88956841
MODE=  12  11
 GRID=   5   4
   COUPV=       -0.0139469525 DIPOLE=   -0.04923082    0.03922036    1.89568918
MODE=  12  11
 GRID=   5   5
   COUPV=       -0.0114475037 DIPOLE=   -0.02354041    0.02716492    1.90104686
MODE=  12  11
 GRID=   5   6
   COUPV=       -0.0086420995 DIPOLE=   -0.00331301    0.01429879    1.90542015
MODE=  12  11
 GRID=   5   7
   COUPV=       -0.0054883632 DIPOLE=    0.01178661    0.00069656    1.90862828
MODE=  12  11
 GRID=   5   8
   COUPV=       -0.0019391464 DIPOLE=    0.02213127   -0.01355323    1.91052763
MODE=  12  11
 GRID=   5   9
   COUPV=        0.0020582692 DIPOLE=    0.02812094   -0.02835160    1.91100990
MODE=  12  11
 GRID=   5  10
   COUPV=        0.0065630887 DIPOLE=    0.03017454   -0.04359119    1.90999893
MODE=  12  11
 GRID=   5  11
   COUPV=        0.0116420810 DIPOLE=    0.02872284   -0.05915957    1.90744941
MODE=  12  11
 GRID=   5  12
   COUPV=        0.0173708615 DIPOLE=    0.02420378   -0.07494208    1.90334525
MODE=  12  11
 GRID=   5  13
   COUPV=        0.0238354337 DIPOLE=    0.01706037   -0.09082464    1.89769811
MODE=  12  11
 GRID=   5  14
   COUPV=        0.0311340404 DIPOLE=    0.00774143   -0.10669672    1.89054746
MODE=  12  11
 GRID=   5  15
   COUPV=        0.0393793846 DIPOLE=   -0.00329639   -0.12245314    1.88195800
MODE=  12  11
 GRID=   5  16
   COUPV=        0.0487012743 DIPOLE=   -0.01558552   -0.13799578    1.87201931
MODE=  12  11
 GRID=   6   1
   COUPV=       -0.0099785907 DIPOLE=   -0.17220118    0.05110622    1.88161395
MODE=  12  11
 GRID=   6   2
   COUPV=       -0.0090789100 DIPOLE=   -0.12880035    0.04441880    1.88833410
MODE=  12  11
 GRID=   6   3
   COUPV=       -0.0080794726 DIPOLE=   -0.09153263    0.03707486    1.89486675
MODE=  12  11
 GRID=   6   4
   COUPV=       -0.0069641699 DIPOLE=   -0.06027643    0.02908463    1.90088838
MODE=  12  11
 GRID=   6   5
   COUPV=       -0.0057155433 DIPOLE=   -0.03481863    0.02047410    1.90612707
MODE=  12  11
 GRID=   6   6
   COUPV=       -0.0043144527 DIPOLE=   -0.01487550    0.01128368    1.91035653
MODE=  12  11
 GRID=   6   7
   COUPV=       -0.0027397474 DIPOLE=   -0.00011085    0.00156575    1.91339204
MODE=  12  11
 GRID=   6   8
   COUPV=       -0.0009679193 DIPOLE=    0.00985080   -0.00861698    1.91508665
MODE=  12  11
 GRID=   6   9
   COUPV=        0.0010272806 DIPOLE=    0.01541379   -0.01919393    1.91532942
MODE=  12  11
 GRID=   6  10
   COUPV=        0.0032752801 DIPOLE=    0.01700286   -0.03008868    1.91404317
MODE=  12  11
 GRID=   6  11
   COUPV=        0.0058092003 DIPOLE=    0.01505607   -0.04122105    1.91118263
MODE=  12  11
 GRID=   6  12
   COUPV=        0.0086664695 DIPOLE=    0.01001993   -0.05250927    1.90673279
MODE=  12  11
 GRID=   6  13
   COUPV=        0.0118895648 DIPOLE=    0.00234704   -0.06387215    1.90070718
MODE=  12  11
 GRID=   6  14
   COUPV=        0.0155269082 DIPOLE=   -0.00750338   -0.07523114    1.89314747
MODE=  12  11
 GRID=   6  15
   COUPV=        0.0196339470 DIPOLE=   -0.01906383   -0.08651178    1.88412058
MODE=  12  11
 GRID=   6  16
   COUPV=        0.0242744477 DIPOLE=   -0.03185581   -0.09764478    1.87371796
MODE=  12  11
 GRID=   7   1
   COUPV=       -0.0035418321 DIPOLE=   -0.17938602    0.03109297    1.88530787
MODE=  12  11
 GRID=   7   2
   COUPV=       -0.0032222010 DIPOLE=   -0.13603948    0.02707970    1.89197681
MODE=  12  11
 GRID=   7   3
   COUPV=       -0.0028672547 DIPOLE=   -0.09885648    0.02267347    1.89845211
MODE=  12  11
 GRID=   7   4
   COUPV=       -0.0024712733 DIPOLE=   -0.06771831    0.01788012    1.90440694
MODE=  12  11
 GRID=   7   5
   COUPV=       -0.0020280584 DIPOLE=   -0.04241355    0.01271462    1.90956621
MODE=  12  11
 GRID=   7   6
   COUPV=       -0.0015308155 DIPOLE=   -0.02265894    0.00720077    1.91370045
MODE=  12  11
 GRID=   7   7
   COUPV=       -0.0009720387 DIPOLE=   -0.00811753    0.00136981    1.91662184
MODE=  12  11
 GRID=   7   8
   COUPV=       -0.0003433907 DIPOLE=    0.00158796   -0.00474093    1.91818128
MODE=  12  11
 GRID=   7   9
   COUPV=        0.0003644297 DIPOLE=    0.00686479   -0.01108923    1.91826625
MODE=  12  11
 GRID=   7  10
   COUPV=        0.0011618381 DIPOLE=    0.00814162   -0.01762930    1.91679881
MODE=  12  11
 GRID=   7  11
   COUPV=        0.0020605413 DIPOLE=    0.00586134   -0.02431303    1.91373374
MODE=  12  11
 GRID=   7  12
   COUPV=        0.0030737484 DIPOLE=    0.00047604   -0.03109141    1.90905685
MODE=  12  11
 GRID=   7  13
   COUPV=        0.0042164267 DIPOLE=   -0.00755546   -0.03791574    1.90278298
MODE=  12  11
 GRID=   7  14
   COUPV=        0.0055056127 DIPOLE=   -0.01776724   -0.04473904    1.89495538
MODE=  12  11
 GRID=   7  15
   COUPV=        0.0069607879 DIPOLE=   -0.02968474   -0.05151691    1.88564264
MODE=  12  11
 GRID=   7  16
   COUPV=        0.0086043319 DIPOLE=   -0.04282225   -0.05820815    1.87493754
MODE=  12  11
 GRID=   8   1
   COUPV=       -0.0003907540 DIPOLE=   -0.18300568    0.01043573    1.88717205
MODE=  12  11
 GRID=   8   2
   COUPV=       -0.0003554751 DIPOLE=   -0.13968486    0.00909797    1.89381468
MODE=  12  11
 GRID=   8   3
   COUPV=       -0.0003163048 DIPOLE=   -0.10254300    0.00762930    1.90026093
MODE=  12  11
 GRID=   8   4
   COUPV=       -0.0002726121 DIPOLE=   -0.07146290    0.00603171    1.90618219
MODE=  12  11
 GRID=   8   5
   COUPV=       -0.0002237131 DIPOLE=   -0.04623402    0.00431008    1.91130172
MODE=  12  11
 GRID=   8   6
   COUPV=       -0.0001688580 DIPOLE=   -0.02657334    0.00247228    1.91538840
MODE=  12  11
 GRID=   8   7
   COUPV=       -0.0001072189 DIPOLE=   -0.01214355    0.00052865    1.91825301
MODE=  12  11
 GRID=   8   8
   COUPV=       -0.0000378761 DIPOLE=   -0.00256643   -0.00150839    1.91974530
MODE=  12  11
 GRID=   8   9
   COUPV=        0.0000401957 DIPOLE=    0.00256677   -0.00362480    1.91975194
MODE=  12  11
 GRID=   8  10
   COUPV=        0.0001281444 DIPOLE=    0.00368670   -0.00580531    1.91819459
MODE=  12  11
 GRID=   8  11
   COUPV=        0.0002272589 DIPOLE=    0.00123865   -0.00803389    1.91502811
MODE=  12  11
 GRID=   8  12
   COUPV=        0.0003389925 DIPOLE=   -0.00432254   -0.01029421    1.91023869
MODE=  12  11
 GRID=   8  13
   COUPV=        0.0004649907 DIPOLE=   -0.01253498   -0.01257004    1.90384188
MODE=  12  11
 GRID=   8  14
   COUPV=        0.0006071250 DIPOLE=   -0.02292952   -0.01484572    1.89588174
MODE=  12  11
 GRID=   8  15
   COUPV=        0.0007675337 DIPOLE=   -0.03502811   -0.01710650    1.88642776
MODE=  12  11
 GRID=   8  16
   COUPV=        0.0009486720 DIPOLE=   -0.04834150   -0.01933872    1.87557346
MODE=  12  11
 GRID=   9   1
   COUPV=       -0.0003907721 DIPOLE=   -0.18300564   -0.01043586    1.88717204
MODE=  12  11
 GRID=   9   2
   COUPV=       -0.0003554878 DIPOLE=   -0.13968484   -0.00909803    1.89381468
MODE=  12  11
 GRID=   9   3
   COUPV=       -0.0003163135 DIPOLE=   -0.10254298   -0.00762935    1.90026093
MODE=  12  11
 GRID=   9   4
   COUPV=       -0.0002726177 DIPOLE=   -0.07146289   -0.00603174    1.90618219
MODE=  12  11
 GRID=   9   5
   COUPV=       -0.0002237163 DIPOLE=   -0.04623401   -0.00431009    1.91130172
MODE=  12  11
 GRID=   9   6
   COUPV=       -0.0001688597 DIPOLE=   -0.02657334   -0.00247228    1.91538840
MODE=  12  11
 GRID=   9   7
   COUPV=       -0.0001072195 DIPOLE=   -0.01214355   -0.00052865    1.91825301
MODE=  12  11
 GRID=   9   8
   COUPV=       -0.0000378762 DIPOLE=   -0.00256643    0.00150839    1.91974530
MODE=  12  11
 GRID=   9   9
   COUPV=        0.0000401957 DIPOLE=    0.00256677    0.00362479    1.91975194
MODE=  12  11
 GRID=   9  10
   COUPV=        0.0001281438 DIPOLE=    0.00368670    0.00580530    1.91819459
MODE=  12  11
 GRID=   9  11
   COUPV=        0.0002272572 DIPOLE=    0.00123865    0.00803387    1.91502811
MODE=  12  11
 GRID=   9  12
   COUPV=        0.0003389892 DIPOLE=   -0.00432254    0.01029417    1.91023869
MODE=  12  11
 GRID=   9  13
   COUPV=        0.0004649852 DIPOLE=   -0.01253499    0.01256998    1.90384188
MODE=  12  11
 GRID=   9  14
   COUPV=        0.0006071165 DIPOLE=   -0.02292953    0.01484563    1.89588174
MODE=  12  11
 GRID=   9  15
   COUPV=        0.0007675214 DIPOLE=   -0.03502813    0.01710638    1.88642776
MODE=  12  11
 GRID=   9  16
   COUPV=        0.0009486549 DIPOLE=   -0.04834152    0.01933856    1.87557345
MODE=  12  11
 GRID=  10   1
   COUPV=       -0.0035418863 DIPOLE=   -0.17938594   -0.03109303    1.88530787
MODE=  12  11
 GRID=  10   2
   COUPV=       -0.0032222394 DIPOLE=   -0.13603943   -0.02707976    1.89197680
MODE=  12  11
 GRID=  10   3
   COUPV=       -0.0028672808 DIPOLE=   -0.09885644   -0.02267351    1.89845211
MODE=  12  11
 GRID=  10   4
   COUPV=       -0.0024712901 DIPOLE=   -0.06771827   -0.01788015    1.90440693
MODE=  12  11
 GRID=  10   5
   COUPV=       -0.0020280682 DIPOLE=   -0.04241352   -0.01271463    1.90956621
MODE=  12  11
 GRID=  10   6
   COUPV=       -0.0015308204 DIPOLE=   -0.02265891   -0.00720078    1.91370045
MODE=  12  11
 GRID=  10   7