 $CONTRL SCFTYP=RHF 
 RUNTYP=vscf 
! RUNTYP=optimize
 mplevl=0
 $END

! $mp2 mp2prp=.t. $end
 $SYSTEM TIMLIM=500 MEMORY=3000000 $END
 $DATA
 NH3  vibscf simulation 
 Cnv 3

 N           7.0   0.0000000000   0.0000000000   0.5796847084
 H           1.0   0.9316247399   0.0000000000   0.9500281759
 $END
 $GUESS  GUESS=HUCKEL $END
 $CONTRL ICUT=20 ITOL=30 INTTYP=HONDO $END
 $statpt hssend=.t. $end
 $force nvib=2 $end
 $basis gbasis=n31 ngauss=6 ndfunc=1 $end
 $SCF    NCONV=6 FDIFF=.FALSE. dirscf=.t. $END
 $HESS
ENERGY IS      -56.1843563413 E(NUC) IS       12.0684404796
 1  1 7.41763840E-01 0.00000000E+00-3.66387608E-33-1.62222634E-01 1.47279279E-01
 1  2 9.82852912E-02-1.62222634E-01-1.47279279E-01 9.82852912E-02-4.17317828E-01
 1  3 0.00000000E+00-1.96570582E-01
 2  1 0.00000000E+00 7.41763840E-01-7.37318216E-33 1.47279279E-01-3.32286097E-01
 2  2-1.70235118E-01-1.47279279E-01-3.32286097E-01 1.70235118E-01 0.00000000E+00
 2  3-7.71909022E-02 0.00000000E+00
 3  1-3.66387608E-33-7.37318216E-33 2.66250905E-01 6.64017836E-02-1.15011263E-01
 3  2-8.87504263E-02 6.64017836E-02 1.15011263E-01-8.87504263E-02-1.32803567E-01
 3  3 0.00000000E+00-8.87504263E-02
 4  1-1.62222634E-01 1.47279279E-01 6.64017836E-02 1.67610455E-01-1.65584507E-01
 4  2-7.74303970E-02 1.31589754E-02-2.17716197E-02-9.82614680E-03-1.85469355E-02
 4  3 4.00770359E-02 2.08545693E-02
 5  1 1.47279279E-01-3.32286097E-01-1.15011263E-01-1.65584507E-01 3.58810974E-01
 5  2 1.34113382E-01 2.17716197E-02-2.91155725E-02-1.84076539E-02-3.46620351E-03
 5  3 2.59033845E-03-6.94134220E-04
 6  1 9.82852912E-02-1.70235118E-01-8.87504263E-02-7.74303970E-02 1.34113382E-01
 6  2 8.16804673E-02-9.82614680E-03 1.84076539E-02 3.53504185E-03-1.10284225E-02
 6  3 1.77135197E-02 3.53504185E-03
 7  1-1.62222634E-01-1.47279279E-01 6.64017836E-02 1.31589754E-02 2.17716197E-02
 7  2-9.82614680E-03 1.67610455E-01 1.65584507E-01-7.74303970E-02-1.85469355E-02
 7  3-4.00770359E-02 2.08545693E-02
 8  1-1.47279279E-01-3.32286097E-01 1.15011263E-01-2.17716197E-02-2.91155725E-02
 8  2 1.84076539E-02 1.65584507E-01 3.58810974E-01-1.34113382E-01 3.46620351E-03
 8  3 2.59033845E-03 6.94134220E-04
 9  1 9.82852912E-02 1.70235118E-01-8.87504263E-02-9.82614680E-03-1.84076539E-02
 9  2 3.53504185E-03-7.74303970E-02-1.34113382E-01 8.16804673E-02-1.10284225E-02
 9  3-1.77135197E-02 3.53504185E-03
10  1-4.17317828E-01 0.00000000E+00-1.32803567E-01-1.85469355E-02-3.46620351E-03
10  2-1.10284225E-02-1.85469355E-02 3.46620351E-03-1.10284225E-02 4.54411234E-01
10  3 0.00000000E+00 1.54860794E-01
11  1 0.00000000E+00-7.71909022E-02 0.00000000E+00 4.00770359E-02 2.59033845E-03
11  2 1.77135197E-02-4.00770359E-02 2.59033845E-03-1.77135197E-02 0.00000000E+00
11  3 7.20101947E-02 0.00000000E+00
12  1-1.96570582E-01 0.00000000E+00-8.87504263E-02 2.08545693E-02-6.94134220E-04
12  2 3.53504185E-03 2.08545693E-02 6.94134220E-04 3.53504185E-03 1.54860794E-01
12  3 0.00000000E+00 8.16804673E-02
 $END
