 $CONTRL  RUNTYP=optimize
 ispher=+1
! numgrd=.t.
! exetyp=check
 pp=read
 $END
 $system TIMLIM=9000 
 mwords=80 memddi=20 $end
! $BASIS  GBASIS=SBK $END
! $statpt hssend=.t. $end
! $BASIS  GBASIS=cct $END
 $scf dirscf=.t. $end


 $DATA
 Cr(C6H6)2
Dnh 6

 Cr          24  
S   4
1         5.3610000              0.2203111
2         1.4490000             -0.5423391
3         0.5496000             -0.6047716
4         0.1052000              1.1136657
S   3
1         5.3610000             -0.3805689
2         1.4490000              0.7795625
3         0.5496000              0.4730777
S   1
1         0.0364000              1.0000000
P   3
1        16.4200000             -0.0461397
2         1.9140000              0.6109965
3         0.6241000              0.4859635
P   1
1         0.0630000              1.0000000
P   1
1         0.0190000              1.0000000
D   4
1        28.9500000              0.0337787
2         7.7080000              0.1780345
3         2.4950000              0.4370008
4         0.7655000              0.5941795
D   1
1         0.1889000              1.0000000

 C           6.0   0   1.4   1.2
S   7
1      4233.0000000              0.0012200
2       634.9000000              0.0093420
3       146.1000000              0.0454520
4        42.5000000              0.1546570
5        14.1900000              0.3588660
6         5.1480000              0.4386320
7         1.9670000              0.1459180
S   2
1         5.1480000             -0.1683670
2         0.4962000              1.0600910
S   1
1         0.1533000              1.0000000
P   4
1        18.1600000              0.0185390
2         3.9860000              0.1154360
3         1.1430000              0.3861880
4         0.3594000              0.6401140
P   1
1         0.1146000              1.0000000

 H           1.0   0    2.5  1.2
S   3
1        19.2384000              0.0328280
2         2.8987000              0.2312040
3         0.6535000              0.8172260
S   1
1         0.1776000              1.0000000

 $END
 $ECP
CR-ECP GEN    10    2
3     ----- d-ul potential -----
    -10.0000000       1     329.2720539
    -57.9409398       2      59.5487597
    -10.2623285       2      14.8265966
5     ----- s-d potential -----
      3.0000000       0     100.0260653
     25.2534599       1      67.8468124
    210.6472366       2      34.6771006
    235.2819587       2       7.6757005
   -152.5343461       2       7.2077427
5     ----- p-d potential -----
      5.0000000       0      47.9723321
      5.6390266       1      59.6224873
    164.8362198       2      26.0432600
    106.0168018       2       6.5582692
    -69.8585468       2       6.1268236
C-ecp none
C-ecp none
C-ecp none
C-ecp none
C-ecp none
C-ecp none
C-ecp none
C-ecp none
C-ecp none
C-ecp none
C-ecp none
C-ecp none
H-ecp none
H-ecp none
H-ecp none
H-ecp none
H-ecp none
H-ecp none
H-ecp none
H-ecp none
H-ecp none
H-ecp none
H-ecp none
H-ecp none
 $END
