 $CONTRL  scftyp=mcscf $END
 $basis gbasis=n31 ngauss=6 ndfunc=1 $end

!!!Обратите внимание на перестановку МО!! В активное пространство включены 4 pi-МО
 $Guess guess=moread norb=20 norder=1 iorder(17)=19,17,18  prtmo=.t. $end
!!!Обратите внимание на перестановку МО!!

 $dEt group=c2  ncore=13 nact=4 neLs=4 SZ=0 nstate=1 $end
 $scf dirscf=.t. $end
 $DATA
cis-Butadiene,initial geometry
 cn 2

 C           6.0   0.0000000000   0.7355852514  -0.0008505573
 C           6.0   0.0000000000   1.5344570931   1.0798461858
 H           1.0   0.0000000000   1.2054815643  -0.9828868787
 H           1.0   0.0000000000   1.1430528788   2.0927400241
 H           1.0   0.0000000000   2.6140994521   0.9771512261
 $end
--- RHF ORBITALS --- GENERATED AT 19:26:56 LT   9-NOV-2009
cis-Butadiene,initial geometry                                                  
E(RHF)=     -154.9117624568, E(NUC)=  104.5079680431,   10 ITERS
 $VEC
 1  1 7.01652391E-01 1.93580765E-02 0.00000000E+00 7.07275416E-05-1.67999405E-06
 1  2-6.16773449E-03 0.00000000E+00 5.22753792E-04-4.21141615E-04-1.77207399E-03
 1  3-1.62535135E-03-1.35739197E-03 0.00000000E+00 0.00000000E+00-1.21915425E-04
 1  4 7.01652391E-01 1.93580765E-02 0.00000000E+00-7.07275416E-05-1.67999405E-06
 1  5-6.16773449E-03 0.00000000E+00-5.22753792E-04-4.21141615E-04-1.77207399E-03
 1  6-1.62535135E-03-1.35739197E-03 0.00000000E+00 0.00000000E+00 1.21915425E-04
 1  7 5.58760160E-02 1.23995572E-03 0.00000000E+00-1.26090752E-04 9.38541651E-05
 1  8 2.16814769E-03 0.00000000E+00 1.01959607E-03-6.86704511E-04-2.27917531E-04
 1  9-2.44621575E-04-2.61000392E-04 0.00000000E+00 0.00000000E+00-2.60162811E-05
 1 10 5.58760160E-02 1.23995572E-03 0.00000000E+00 1.26090752E-04 9.38541651E-05
 1 11 2.16814769E-03 0.00000000E+00-1.01959607E-03-6.86704511E-04-2.27917531E-04
 1 12-2.44621575E-04-2.61000392E-04 0.00000000E+00 0.00000000E+00 2.60162811E-05
 1 13-1.49171521E-04 1.27565032E-03-1.49171521E-04 1.27565032E-03-1.06172764E-04
 1 14-9.93301612E-05-1.06172764E-04-9.93301612E-05-1.31747110E-05 2.89446535E-04
 1 15-1.31747110E-05 2.89446535E-04
 2  1 7.01465182E-01 1.93047939E-02 0.00000000E+00 2.65072813E-04 6.62211471E-05
 2  2-1.19251302E-02 0.00000000E+00-1.69509845E-03-1.37583836E-03-1.53411603E-03
 2  3-6.15376110E-04-1.01356743E-03 0.00000000E+00 0.00000000E+00-2.81087516E-04
 2  4-7.01465182E-01-1.93047939E-02 0.00000000E+00 2.65072813E-04-6.62211471E-05
 2  5 1.19251302E-02 0.00000000E+00-1.69509845E-03 1.37583836E-03 1.53411603E-03
 2  6 6.15376110E-04 1.01356743E-03 0.00000000E+00 0.00000000E+00-2.81087516E-04
 2  7 6.14831265E-02 1.54254115E-03 0.00000000E+00-4.05907536E-05 1.25565732E-04
 2  8 2.98343859E-03 0.00000000E+00 1.20534425E-03-7.41495080E-04-1.61329692E-04
 2  9-2.94974996E-04-4.49883925E-04 0.00000000E+00 0.00000000E+00 2.91427426E-05
 2 10-6.14831265E-02-1.54254115E-03 0.00000000E+00-4.05907536E-05-1.25565732E-04
 2 11-2.98343859E-03 0.00000000E+00 1.20534425E-03 7.41495080E-04 1.61329692E-04
 2 12 2.94974996E-04 4.49883925E-04 0.00000000E+00 0.00000000E+00 2.91427426E-05
 2 13-6.38049013E-05 1.07723028E-03 6.38049013E-05-1.07723028E-03-7.96049056E-05
 2 14-1.80538377E-04 7.96049056E-05 1.80538377E-04-3.67648619E-05 1.34987478E-04
 2 15 3.67648619E-05-1.34987478E-04
 3  1-6.19433239E-02-1.83894789E-03 0.00000000E+00 9.13930480E-05-1.23404571E-04
 3  2 4.09443428E-03 0.00000000E+00-6.13113389E-04 1.23986818E-03 1.00541119E-04
 3  3-2.31636403E-04-1.30310461E-04 0.00000000E+00 0.00000000E+00 2.90400227E-05
 3  4 6.19433239E-02 1.83894789E-03 0.00000000E+00 9.13930480E-05 1.23404571E-04
 3  5-4.09443428E-03 0.00000000E+00-6.13113389E-04-1.23986818E-03-1.00541119E-04
 3  6 2.31636403E-04 1.30310461E-04 0.00000000E+00 0.00000000E+00 2.90400227E-05
 3  7 7.01328526E-01 1.93562455E-02 0.00000000E+00 5.70349279E-05-7.26317621E-07
 3  8-8.79951433E-03 0.00000000E+00-6.10135327E-04 3.35078695E-04-1.73515273E-03
 3  9-1.26957470E-03-1.19046023E-03 0.00000000E+00 0.00000000E+00-1.57834839E-04
 3 10-7.01328526E-01-1.93562455E-02 0.00000000E+00 5.70349279E-05 7.26317621E-07
 3 11 8.79951433E-03 0.00000000E+00-6.10135327E-04-3.35078695E-04 1.73515273E-03
 3 12 1.26957470E-03 1.19046023E-03 0.00000000E+00 0.00000000E+00-1.57834839E-04
 3 13-2.27809654E-05-1.99033020E-04 2.27809654E-05 1.99033020E-04-8.33953138E-05
 3 14 1.80312207E-03 8.33953138E-05-1.80312207E-03-1.05095821E-04 1.39332151E-03
 3 15 1.05095821E-04-1.39332151E-03
 4  1-5.63194864E-02-1.82185447E-03 0.00000000E+00 7.02803437E-05-1.63386101E-04
 4  2 3.17680725E-03 0.00000000E+00-7.35097586E-04 9.61842114E-04 6.83073606E-05
 4  3-3.42302070E-05-8.64145836E-05 0.00000000E+00 0.00000000E+00 4.88946953E-05
 4  4-5.63194864E-02-1.82185447E-03 0.00000000E+00-7.02803437E-05-1.63386101E-04
 4  5 3.17680725E-03 0.00000000E+00 7.35097586E-04 9.61842114E-04 6.83073606E-05
 4  6-3.42302070E-05-8.64145836E-05 0.00000000E+00 0.00000000E+00-4.88946953E-05
 4  7 7.01780801E-01 1.93298945E-02 0.00000000E+00-9.03543859E-06-3.83864157E-05
 4  8-8.13524358E-03 0.00000000E+00-2.11782081E-04 4.96525294E-04-1.79547374E-03
 4  9-1.33877951E-03-1.21929441E-03 0.00000000E+00 0.00000000E+00-1.55905737E-04
 4 10 7.01780801E-01 1.93298945E-02 0.00000000E+00 9.03543859E-06-3.83864157E-05
 4 11-8.13524358E-03 0.00000000E+00 2.11782081E-04 4.96525294E-04-1.79547374E-03
 4 12-1.33877951E-03-1.21929441E-03 0.00000000E+00 0.00000000E+00 1.55905737E-04
 4 13-2.17364422E-05-5.24801376E-05-2.17364422E-05-5.24801376E-05-1.14631019E-04
 4 14 1.33891095E-03-1.14631019E-04 1.33891095E-03-9.05707908E-05 1.53375017E-03
 4 15-9.05707908E-05 1.53375017E-03
 5  1-1.31021105E-01 2.51491740E-01 0.00000000E+00 2.50731514E-02 4.56670997E-02
 5  2 1.70993104E-01 0.00000000E+00 5.57253907E-03-7.75465020E-04-1.11072940E-02
 5  3 1.29313000E-02 6.84162112E-03 0.00000000E+00 0.00000000E+00-2.80286786E-03
 5  4-1.31021105E-01 2.51491740E-01 0.00000000E+00-2.50731514E-02 4.56670997E-02
 5  5 1.70993104E-01 0.00000000E+00-5.57253907E-03-7.75465020E-04-1.11072940E-02
 5  6 1.29313000E-02 6.84162112E-03 0.00000000E+00 0.00000000E+00 2.80286786E-03
 5  7-9.11566665E-02 1.72182990E-01 0.00000000E+00 5.14216466E-02-5.60518759E-02
 5  8 1.28758989E-01 0.00000000E+00 6.54191073E-03-5.57951126E-03-7.52509450E-03
 5  9 5.63214830E-03 7.32320238E-03 0.00000000E+00 0.00000000E+00-5.57399209E-03
 5 10-9.11566665E-02 1.72182990E-01 0.00000000E+00-5.14216466E-02-5.60518759E-02
 5 11 1.28758989E-01 0.00000000E+00-6.54191073E-03-5.57951126E-03-7.52509450E-03
 5 12 5.63214830E-03 7.32320238E-03 0.00000000E+00 0.00000000E+00 5.57399209E-03
 5 13 6.33114418E-02 9.28233937E-03 6.33114418E-02 9.28233937E-03 4.58396389E-02
 5 14 8.54849817E-03 4.58396389E-02 8.54849817E-03 4.09294778E-02 6.30374399E-03
 5 15 4.09294778E-02 6.30374399E-03
 6  1-8.90703665E-02 1.72552354E-01 0.00000000E+00-1.10315270E-01 6.52949484E-02
 6  2 1.27669574E-01 0.00000000E+00-2.43023324E-02-1.05318148E-02-5.92744221E-03
 6  3-4.44308577E-03 1.12202906E-02 0.00000000E+00 0.00000000E+00-6.94036547E-03
 6  4 8.90703665E-02-1.72552354E-01 0.00000000E+00-1.10315270E-01-6.52949484E-02
 6  5-1.27669574E-01 0.00000000E+00-2.43023324E-02 1.05318148E-02 5.92744221E-03
 6  6 4.44308577E-03-1.12202906E-02 0.00000000E+00 0.00000000E+00-6.94036547E-03
 6  7-1.26058396E-01 2.38873935E-01 0.00000000E+00 2.98539330E-02-6.03980347E-02
 6  8 2.08846472E-01 0.00000000E+00 5.93215877E-03-2.37466136E-03-1.04308709E-02
 6  9 8.05332903E-03 1.07450040E-02 0.00000000E+00 0.00000000E+00-3.88464326E-03
 6 10 1.26058396E-01-2.38873935E-01 0.00000000E+00 2.98539330E-02 6.03980347E-02
 6 11-2.08846472E-01 0.00000000E+00 5.93215877E-03 2.37466136E-03 1.04308709E-02
 6 12-8.05332903E-03-1.07450040E-02 0.00000000E+00 0.00000000E+00-3.88464326E-03
 6 13 5.50912516E-02 6.45324636E-03-5.50912516E-02-6.45324636E-03 6.76806296E-02
 6 14 9.51464358E-03-6.76806296E-02-9.51464358E-03 7.73850833E-02 2.02135179E-02
 6 15-7.73850833E-02-2.02135179E-02
 7  1 7.36521720E-02-1.46348047E-01 0.00000000E+00-1.37787701E-01 1.27346007E-01
 7  2-1.31360176E-01 0.00000000E+00-3.40410742E-02 4.40983111E-02 6.79998883E-03
 7  3-1.32646958E-02-1.78787341E-03 0.00000000E+00 0.00000000E+00-7.33928563E-03
 7  4 7.36521720E-02-1.46348047E-01 0.00000000E+00 1.37787701E-01 1.27346007E-01
 7  5-1.31360176E-01 0.00000000E+00 3.40410742E-02 4.40983111E-02 6.79998883E-03
 7  6-1.32646958E-02-1.78787341E-03 0.00000000E+00 0.00000000E+00 7.33928563E-03
 7  7-1.02931390E-01 1.99299237E-01 0.00000000E+00-4.08650800E-02 5.41113816E-02
 7  8 1.84704311E-01 0.00000000E+00-1.98036032E-02 2.34391492E-02-8.96924199E-03
 7  9 1.05787987E-02 8.47449579E-03 0.00000000E+00 0.00000000E+00 6.58047584E-03
 7 10-1.02931390E-01 1.99299237E-01 0.00000000E+00 4.08650800E-02 5.41113816E-02
 7 11 1.84704311E-01 0.00000000E+00 1.98036032E-02 2.34391492E-02-8.96924199E-03
 7 12 1.05787987E-02 8.47449579E-03 0.00000000E+00 0.00000000E+00-6.58047584E-03
 7 13-8.53846573E-02-3.32061662E-02-8.53846573E-02-3.32061662E-02 1.02653739E-01
 7 14 4.59554443E-02 1.02653739E-01 4.59554443E-02 9.96378443E-02 3.99629932E-02
 7 15 9.96378443E-02 3.99629932E-02
 8  1 8.52832458E-02-1.69704074E-01 0.00000000E+00 1.02308082E-01 7.38917484E-02
 8  2-1.63418556E-01 0.00000000E+00 2.75706605E-02 7.09019491E-02 6.03859566E-03
 8  3 3.93738622E-03-1.29888503E-02 0.00000000E+00 0.00000000E+00-8.08816243E-03
 8  4-8.52832458E-02 1.69704074E-01 0.00000000E+00 1.02308082E-01-7.38917484E-02
 8  5 1.63418556E-01 0.00000000E+00 2.75706605E-02-7.09019491E-02-6.03859566E-03
 8  6-3.93738622E-03 1.29888503E-02 0.00000000E+00 0.00000000E+00-8.08816243E-03
 8  7-6.08009021E-02 1.18614610E-01 0.00000000E+00-8.09491879E-02 1.83075199E-01
 8  8 1.17411270E-01 0.00000000E+00-4.37627305E-02 7.14049018E-02-5.79667987E-03
 8  9 1.13258139E-02 4.16849087E-03 0.00000000E+00 0.00000000E+00 1.31486404E-02
 8 10 6.08009021E-02-1.18614610E-01 0.00000000E+00-8.09491879E-02-1.83075199E-01
 8 11-1.17411270E-01 0.00000000E+00-4.37627305E-02-7.14049018E-02 5.79667987E-03
 8 12-1.13258139E-02-4.16849087E-03 0.00000000E+00 0.00000000E+00 1.31486404E-02
 8 13-1.35777979E-01-6.10297249E-02 1.35777979E-01 6.10297249E-02 1.28957094E-01
 8 14 7.10803944E-02-1.28957094E-01-7.10803944E-02 9.14038220E-02 4.65375892E-02
 8 15-9.14038220E-02-4.65375892E-02
 9  1-6.61980189E-03 1.74306419E-02 0.00000000E+00 1.77065408E-01 1.82397345E-01
 9  2 6.29247649E-03 0.00000000E+00 5.97515514E-02 7.01560326E-02 5.32417059E-04
 9  3 4.43338304E-03-8.90040419E-03 0.00000000E+00 0.00000000E+00-2.83927775E-03
 9  4-6.61980189E-03 1.74306419E-02 0.00000000E+00-1.77065408E-01 1.82397345E-01
 9  5 6.29247649E-03 0.00000000E+00-5.97515514E-02 7.01560326E-02 5.32417059E-04
 9  6 4.43338304E-03-8.90040419E-03 0.00000000E+00 0.00000000E+00 2.83927775E-03
 9  7 1.04772533E-02-1.91509778E-02 0.00000000E+00 2.06239408E-01 7.98266739E-02
 9  8-3.36282616E-02 0.00000000E+00 8.21477998E-02 3.55562382E-02 1.09760921E-03
 9  9-8.69143607E-03 5.41143785E-03 0.00000000E+00 0.00000000E+00-1.56104538E-03
 9 10 1.04772533E-02-1.91509778E-02 0.00000000E+00-2.06239408E-01 7.98266739E-02
 9 11-3.36282616E-02 0.00000000E+00-8.21477998E-02 3.55562382E-02 1.09760921E-03
 9 12-8.69143607E-03 5.41143785E-03 0.00000000E+00 0.00000000E+00 1.56104538E-03
 9 13-1.29638229E-01-8.88648050E-02-1.29638229E-01-8.88648050E-02 7.57629607E-02
 9 14 5.06461339E-02 7.57629607E-02 5.06461339E-02-1.29152622E-01-8.29753238E-02
 9 15-1.29152622E-01-8.29753238E-02
10  1 1.09124848E-02-2.15996735E-02 0.00000000E+00 2.00736754E-01-2.05734781E-01
10  2-7.20091814E-03 0.00000000E+00 6.56291412E-02-8.21123275E-02-1.86575294E-04
10  3 5.67312173E-03 2.29882282E-04 0.00000000E+00 0.00000000E+00 7.55302696E-03
10  4 1.09124848E-02-2.15996735E-02 0.00000000E+00-2.00736754E-01-2.05734781E-01
10  5-7.20091814E-03 0.00000000E+00-6.56291412E-02-8.21123275E-02-1.86575294E-04
10  6 5.67312173E-03 2.29882282E-04 0.00000000E+00 0.00000000E+00-7.55302696E-03
10  7 1.41268386E-03-6.96214219E-03 0.00000000E+00-9.44943213E-02 2.81582445E-01
10  8 3.06708219E-02 0.00000000E+00-2.07476764E-02 1.11024440E-01-1.58609489E-03
10  9 3.79553850E-03 6.64482405E-03 0.00000000E+00 0.00000000E+00 1.71912985E-02
10 10 1.41268386E-03-6.96214219E-03 0.00000000E+00 9.44943213E-02 2.81582445E-01
10 11 3.06708219E-02 0.00000000E+00 2.07476764E-02 1.11024440E-01-1.58609489E-03
10 12 3.79553850E-03 6.64482405E-03 0.00000000E+00 0.00000000E+00-1.71912985E-02
10 13 5.12785598E-02 3.87649373E-02 5.12785598E-02 3.87649373E-02 1.43640401E-01
10 14 1.07684389E-01 1.43640401E-01 1.07684389E-01 4.16526789E-02 3.71570946E-02
10 15 4.16526789E-02 3.71570946E-02
11  1-1.79613135E-02 4.03158216E-02 0.00000000E+00-3.73994428E-03 1.76499257E-01
11  2 1.25170158E-02 0.00000000E+00-1.37002968E-02 5.77244970E-02 2.56771452E-04
11  3-9.13653882E-03 2.74464099E-03 0.00000000E+00 0.00000000E+00-1.26311875E-02
11  4 1.79613135E-02-4.03158216E-02 0.00000000E+00-3.73994428E-03-1.76499257E-01
11  5-1.25170158E-02 0.00000000E+00-1.37002968E-02-5.77244970E-02-2.56771452E-04
11  6 9.13653882E-03-2.74464099E-03 0.00000000E+00 0.00000000E+00-1.26311875E-02
11  7-1.07160591E-02 2.22427083E-02 0.00000000E+00 3.06108336E-01 2.26514709E-02
11  8 1.90721178E-02 0.00000000E+00 1.45427049E-01 2.81761429E-02 1.79298019E-04
11  9-1.91374635E-02 1.36118748E-02 0.00000000E+00 0.00000000E+00-4.78254075E-03
11 10 1.07160591E-02-2.22427083E-02 0.00000000E+00 3.06108336E-01-2.26514709E-02
11 11-1.90721178E-02 0.00000000E+00 1.45427049E-01-2.81761429E-02-1.79298019E-04
11 12 1.91374635E-02-1.36118748E-02 0.00000000E+00 0.00000000E+00-4.78254075E-03
11 13-8.09178864E-02-7.15983467E-02 8.09178864E-02 7.15983467E-02 8.76029860E-02
11 14 5.34191406E-02-8.76029860E-02-5.34191406E-02-1.84103010E-01-1.39020224E-01
11 15 1.84103010E-01 1.39020224E-01
12  1-1.15071441E-02 2.05453060E-02 0.00000000E+00 1.78254325E-02-2.44487674E-01
12  2 4.52502357E-02 0.00000000E+00-2.91993998E-02-1.40084844E-01-1.68510693E-03
12  3-7.26971670E-03 1.58035201E-02 0.00000000E+00 0.00000000E+00 2.40072564E-02
12  4 1.15071441E-02-2.05453060E-02 0.00000000E+00 1.78254325E-02 2.44487674E-01
12  5-4.52502357E-02 0.00000000E+00-2.91993998E-02 1.40084844E-01 1.68510693E-03
12  6 7.26971670E-03-1.58035201E-02 0.00000000E+00 0.00000000E+00 2.40072564E-02
12  7 1.61741509E-02-3.46162006E-02 0.00000000E+00 3.27784632E-02 2.57920146E-01
12  8-2.18434859E-02 0.00000000E+00 4.43681567E-02 1.33182196E-01 9.37544388E-05
12  9-1.10893151E-02 1.75245051E-02 0.00000000E+00 0.00000000E+00 1.35506216E-02
12 10-1.61741509E-02 3.46162006E-02 0.00000000E+00 3.27784632E-02-2.57920146E-01
12 11 2.18434859E-02 0.00000000E+00 4.43681567E-02-1.33182196E-01-9.37544388E-05
12 12 1.10893151E-02-1.75245051E-02 0.00000000E+00 0.00000000E+00 1.35506216E-02
12 13 1.68569853E-01 1.35457836E-01-1.68569853E-01-1.35457836E-01 1.55794808E-01
12 14 1.28742311E-01-1.55794808E-01-1.28742311E-01-5.95019899E-02-4.00455128E-02
12 15 5.95019899E-02 4.00455128E-02
13  1-1.41557711E-02 3.33810177E-02 0.00000000E+00 2.83058755E-01 8.91829076E-02
13  2 3.74678749E-02 0.00000000E+00 1.38517578E-01 6.63309856E-02-8.50528286E-05
13  3 2.05788827E-02-2.35653298E-02 0.00000000E+00 0.00000000E+00-6.16166800E-03
13  4-1.41557711E-02 3.33810177E-02 0.00000000E+00-2.83058755E-01 8.91829076E-02
13  5 3.74678749E-02 0.00000000E+00-1.38517578E-01 6.63309856E-02-8.50528286E-05
13  6 2.05788827E-02-2.35653298E-02 0.00000000E+00 0.00000000E+00 6.16166800E-03
13  7 2.89118911E-03-5.67352047E-03 0.00000000E+00-1.99495750E-01-6.20480373E-02
13  8-3.19992339E-03 0.00000000E+00-1.24911170E-01-4.36443936E-02-1.76444449E-06
13  9 2.35803075E-02-2.13050197E-02 0.00000000E+00 0.00000000E+00-4.64033757E-03
13 10 2.89118911E-03-5.67352047E-03 0.00000000E+00 1.99495750E-01-6.20480373E-02
13 11-3.19992339E-03 0.00000000E+00 1.24911170E-01-4.36443936E-02-1.76444449E-06
13 12 2.35803075E-02-2.13050197E-02 0.00000000E+00 0.00000000E+00 4.64033757E-03
13 13-1.32528109E-01-1.18165022E-01-1.32528109E-01-1.18165022E-01-1.09271277E-01
13 14-1.01220606E-01-1.09271277E-01-1.01220606E-01 1.48197523E-01 1.25118803E-01
13 15 1.48197523E-01 1.25118803E-01
14  1 0.00000000E+00 0.00000000E+00 2.94754336E-01 0.00000000E+00 0.00000000E+00
14  2 0.00000000E+00 2.07138756E-01 0.00000000E+00 0.00000000E+00 0.00000000E+00
14  3 0.00000000E+00 0.00000000E+00 1.81663415E-03 1.24298286E-02 0.00000000E+00
14  4 0.00000000E+00 0.00000000E+00 2.94754336E-01 0.00000000E+00 0.00000000E+00
14  5 0.00000000E+00 2.07138756E-01 0.00000000E+00 0.00000000E+00 0.00000000E+00
14  6 0.00000000E+00 0.00000000E+00-1.81663415E-03 1.24298286E-02 0.00000000E+00
14  7 0.00000000E+00 0.00000000E+00 2.20985321E-01 0.00000000E+00 0.00000000E+00
14  8 0.00000000E+00 1.69114119E-01 0.00000000E+00 0.00000000E+00 0.00000000E+00
14  9 0.00000000E+00 0.00000000E+00 1.11982386E-02-1.40099778E-02 0.00000000E+00
14 10 0.00000000E+00 0.00000000E+00 2.20985321E-01 0.00000000E+00 0.00000000E+00
14 11 0.00000000E+00 1.69114119E-01 0.00000000E+00 0.00000000E+00 0.00000000E+00
14 12 0.00000000E+00 0.00000000E+00-1.11982386E-02-1.40099778E-02 0.00000000E+00
14 13 0.00000000E+00 0.00000000E+00 0.00000000E+00 0.00000000E+00 0.00000000E+00
14 14 0.00000000E+00 0.00000000E+00 0.00000000E+00 0.00000000E+00 0.00000000E+00
14 15 0.00000000E+00 0.00000000E+00
15  1 0.00000000E+00 0.00000000E+00 2.36256110E-01 0.00000000E+00 0.00000000E+00
15  2 0.00000000E+00 2.17754729E-01 0.00000000E+00 0.00000000E+00 0.00000000E+00
15  3 0.00000000E+00 0.00000000E+00-2.00679882E-02 1.49139042E-02 0.00000000E+00
15  4 0.00000000E+00 0.00000000E+00-2.36256110E-01 0.00000000E+00 0.00000000E+00
15  5 0.00000000E+00-2.17754729E-01 0.00000000E+00 0.00000000E+00 0.00000000E+00
15  6 0.00000000E+00 0.00000000E+00-2.00679882E-02-1.49139042E-02 0.00000000E+00
15  7 0.00000000E+00 0.00000000E+00 3.06727858E-01 0.00000000E+00 0.00000000E+00
15  8 0.00000000E+00 2.68491283E-01 0.00000000E+00 0.00000000E+00 0.00000000E+00
15  9 0.00000000E+00 0.00000000E+00 9.00027637E-03-1.41405636E-02 0.00000000E+00
15 10 0.00000000E+00 0.00000000E+00-3.06727858E-01 0.00000000E+00 0.00000000E+00
15 11 0.00000000E+00-2.68491283E-01 0.00000000E+00 0.00000000E+00 0.00000000E+00
15 12 0.00000000E+00 0.00000000E+00 9.00027637E-03 1.41405636E-02 0.00000000E+00
15 13 0.00000000E+00 0.00000000E+00 0.00000000E+00 0.00000000E+00 0.00000000E+00
15 14 0.00000000E+00 0.00000000E+00 0.00000000E+00 0.00000000E+00 0.00000000E+00
15 15 0.00000000E+00 0.00000000E+00
16  1 0.00000000E+00 0.00000000E+00-2.17448642E-01 0.00000000E+00 0.00000000E+00
16  2 0.00000000E+00-3.62991765E-01 0.00000000E+00 0.00000000E+00 0.00000000E+00
16  3 0.00000000E+00 0.00000000E+00-2.26451087E-02 1.74914494E-02 0.00000000E+00
16  4 0.00000000E+00 0.00000000E+00-2.17448642E-01 0.00000000E+00 0.00000000E+00
16  5 0.00000000E+00-3.62991765E-01 0.00000000E+00 0.00000000E+00 0.00000000E+00
16  6 0.00000000E+00 0.00000000E+00 2.26451087E-02 1.74914494E-02 0.00000000E+00
16  7 0.00000000E+00 0.00000000E+00 2.76586410E-01 0.00000000E+00 0.00000000E+00
16  8 0.00000000E+00 5.05802297E-01 0.00000000E+00 0.00000000E+00 0.00000000E+00
16  9 0.00000000E+00 0.00000000E+00-8.16909011E-03 9.32613141E-03 0.00000000E+00
16 10 0.00000000E+00 0.00000000E+00 2.76586410E-01 0.00000000E+00 0.00000000E+00
16 11 0.00000000E+00 5.05802297E-01 0.00000000E+00 0.00000000E+00 0.00000000E+00
16 12 0.00000000E+00 0.00000000E+00 8.16909011E-03 9.32613141E-03 0.00000000E+00
16 13 0.00000000E+00 0.00000000E+00 0.00000000E+00 0.00000000E+00 0.00000000E+00
16 14 0.00000000E+00 0.00000000E+00 0.00000000E+00 0.00000000E+00 0.00000000E+00
16 15 0.00000000E+00 0.00000000E+00
17  1 4.09419240E-02-4.05739684E-02 0.00000000E+00 6.01431444E-02 1.39413201E-01
17  2-8.26000834E-01 0.00000000E+00 2.40676297E-01 3.78670074E-01 2.77847737E-03
17  3-2.73775695E-03 6.64997270E-03 0.00000000E+00 0.00000000E+00 1.71241060E-02
17  4 4.09419240E-02-4.05739684E-02 0.00000000E+00-6.01431444E-02 1.39413201E-01
17  5-8.26000834E-01 0.00000000E+00-2.40676297E-01 3.78670074E-01 2.77847737E-03
17  6-2.73775695E-03 6.64997270E-03 0.00000000E+00 0.00000000E+00-1.71241060E-02
17  7 5.57255197E-02-7.71781907E-02 0.00000000E+00 8.39731385E-02-2.52938682E-02
17  8-7.57413518E-01 0.00000000E+00 3.55817581E-01-2.64001853E-01 1.26218597E-03
17  9 1.68157027E-02-1.01805546E-02 0.00000000E+00 0.00000000E+00 1.44360613E-03
17 10 5.57255197E-02-7.71781907E-02 0.00000000E+00-8.39731385E-02-2.52938682E-02
17 11-7.57413518E-01 0.00000000E+00-3.55817581E-01-2.64001853E-01 1.26218597E-03
17 12 1.68157027E-02-1.01805546E-02 0.00000000E+00 0.00000000E+00-1.44360613E-03
17 13 2.96731019E-02 9.94979515E-01 2.96731019E-02 9.94979515E-01-1.77854018E-02
17 14 3.34538732E-01-1.77854018E-02 3.34538732E-01 4.30127039E-02 8.73817046E-01
17 15 4.30127039E-02 8.73817046E-01
18  1-3.64127927E-02 4.21523308E-02 0.00000000E+00-3.96449449E-02-6.70638666E-02
18  2 5.09604222E-01 0.00000000E+00-1.56976199E-01-1.22549304E-01-3.28427413E-03
18  3 9.82948480E-03-1.16063841E-02 0.00000000E+00 0.00000000E+00-3.11263174E-03
18  4-3.64127927E-02 4.21523308E-02 0.00000000E+00 3.96449449E-02-6.70638666E-02
18  5 5.09604222E-01 0.00000000E+00 1.56976199E-01-1.22549304E-01-3.28427413E-03
18  6 9.82948480E-03-1.16063841E-02 0.00000000E+00 0.00000000E+00 3.11263174E-03
18  7 6.77493767E-02-7.14702149E-02 0.00000000E+00-5.14254985E-02-1.51615595E-01
18  8-1.11345119E+00 0.00000000E+00-1.64949706E-01-5.20241095E-01 6.08843971E-03
18  9-1.35773330E-03 3.93102442E-03 0.00000000E+00 0.00000000E+00 3.10713916E-03
18 10 6.77493767E-02-7.14702149E-02 0.00000000E+00 5.14254985E-02-1.51615595E-01
18 11-1.11345119E+00 0.00000000E+00 1.64949706E-01-5.20241095E-01 6.08843971E-03
18 12-1.35773330E-03 3.93102442E-03 0.00000000E+00 0.00000000E+00-3.10713916E-03
18 13-2.88374229E-02-6.35002210E-01-2.88374229E-02-6.35002210E-01 2.30798043E-02
18 14 1.22654619E+00 2.30798043E-02 1.22654619E+00 9.00920260E-03 2.07863511E-01
18 15 9.00920260E-03 2.07863511E-01
19  1 0.00000000E+00 0.00000000E+00 3.21162071E-01 0.00000000E+00 0.00000000E+00
19  2 0.00000000E+00 7.74202706E-01 0.00000000E+00 0.00000000E+00 0.00000000E+00
19  3 0.00000000E+00 0.00000000E+00-1.33830070E-02-1.13842138E-02 0.00000000E+00
19  4 0.00000000E+00 0.00000000E+00-3.21162071E-01 0.00000000E+00 0.00000000E+00
19  5 0.00000000E+00-7.74202706E-01 0.00000000E+00 0.00000000E+00 0.00000000E+00
19  6 0.00000000E+00 0.00000000E+00-1.33830070E-02 1.13842138E-02 0.00000000E+00
19  7 0.00000000E+00 0.00000000E+00-1.94945564E-01 0.00000000E+00 0.00000000E+00
19  8 0.00000000E+00-5.53593868E-01 0.00000000E+00 0.00000000E+00 0.00000000E+00
19  9 0.00000000E+00 0.00000000E+00 1.27686105E-02-2.37548435E-02 0.00000000E+00
19 10 0.00000000E+00 0.00000000E+00 1.94945564E-01 0.00000000E+00 0.00000000E+00
19 11 0.00000000E+00 5.53593868E-01 0.00000000E+00 0.00000000E+00 0.00000000E+00
19 12 0.00000000E+00 0.00000000E+00 1.27686105E-02 2.37548435E-02 0.00000000E+00
19 13 0.00000000E+00 0.00000000E+00 0.00000000E+00 0.00000000E+00 0.00000000E+00
19 14 0.00000000E+00 0.00000000E+00 0.00000000E+00 0.00000000E+00 0.00000000E+00
19 15 0.00000000E+00 0.00000000E+00
20  1 2.04500087E-02 1.43758904E-03 0.00000000E+00 6.87684408E-02 1.20648850E-01
20  2-6.22796671E-01 0.00000000E+00-1.71862733E-01 5.90595598E-01 3.55926007E-03
20  3-1.03944619E-02 9.84378407E-03 0.00000000E+00 0.00000000E+00-4.27664135E-03
20  4-2.04500087E-02-1.43758904E-03 0.00000000E+00 6.87684408E-02-1.20648850E-01
20  5 6.22796671E-01 0.00000000E+00-1.71862733E-01-5.90595598E-01-3.55926007E-03
20  6 1.03944619E-02-9.84378407E-03 0.00000000E+00 0.00000000E+00-4.27664135E-03
20  7 5.02900020E-02-2.73092686E-02 0.00000000E+00 2.05093292E-01 9.64055654E-03
20  8-1.21150319E+00 0.00000000E+00 6.41843585E-01 1.46389108E-01 6.06574524E-03
20  9 4.62954142E-03-2.72715516E-03 0.00000000E+00 0.00000000E+00 1.32853236E-03
20 10-5.02900020E-02 2.73092686E-02 0.00000000E+00 2.05093292E-01-9.64055654E-03
20 11 1.21150319E+00 0.00000000E+00 6.41843585E-01-1.46389108E-01-6.06574524E-03
20 12-4.62954142E-03 2.72715516E-03 0.00000000E+00 0.00000000E+00 1.32853236E-03
20 13 1.39900197E-03 8.33298895E-01-1.39900197E-03-8.33298895E-01 9.65508981E-03
20 14 6.30878749E-03-9.65508981E-03-6.30878749E-03 8.92476471E-03 1.38823275E+00
20 15-8.92476471E-03-1.38823275E+00
21  1 8.60134477E-02-1.15361536E-01 0.00000000E+00 2.11199509E-02 9.89378995E-02
21  2-1.28058081E+00 0.00000000E+00 3.69300124E-01 8.65915427E-01 1.05870273E-03
21  3 1.03063773E-02-4.77127458E-03 0.00000000E+00 0.00000000E+00-5.48466167E-03
21  4-8.60134477E-02 1.15361536E-01 0.00000000E+00 2.11199509E-02-9.89378995E-02
21  5 1.28058081E+00 0.00000000E+00 3.69300124E-01-8.65915427E-01-1.05870273E-03
21  6-1.03063773E-02 4.77127458E-03 0.00000000E+00 0.00000000E+00-5.48466167E-03
21  7-6.35637175E-02 7.38711975E-02 0.00000000E+00-4.73013655E-02 1.87668103E-02
21  8 8.15031040E-01 0.00000000E+00-3.98502800E-01-1.98697166E-01-4.00935761E-03
21  9-1.02629908E-04-4.72070976E-03 0.00000000E+00 0.00000000E+00 7.94678418E-03
21 10 6.35637175E-02-7.38711975E-02 0.00000000E+00-4.73013655E-02-1.87668103E-02
21 11-8.15031040E-01 0.00000000E+00-3.98502800E-01 1.98697166E-01 4.00935761E-03
21 12 1.02629908E-04 4.72070976E-03 0.00000000E+00 0.00000000E+00 7.94678418E-03
21 13 1.41057617E-02 1.58407048E+00-1.41057617E-02-1.58407048E+00-8.65736255E-03
21 14-2.58150314E-01 8.65736255E-03 2.58150314E-01-8.56853821E-03-8.59998567E-01
21 15 8.56853821E-03 8.59998567E-01
22  1-3.30830805E-02-9.83881973E-04 0.00000000E+00-9.18857362E-02-9.39154141E-02
22  2 1.11247666E+00 0.00000000E+00-6.60185629E-01-4.16598668E-01-6.83638168E-03
22  3-8.59164086E-03 1.26633610E-02 0.00000000E+00 0.00000000E+00 7.03198645E-03
22  4-3.30830805E-02-9.83881973E-04 0.00000000E+00 9.18857362E-02-9.39154141E-02
22  5 1.11247666E+00 0.00000000E+00 6.60185629E-01-4.16598668E-01-6.83638168E-03
22  6-8.59164086E-03 1.26633610E-02 0.00000000E+00 0.00000000E+00-7.03198645E-03
22  7 2.92624281E-02-2.75731772E-02 0.00000000E+00 1.75711840E-01 1.05625620E-01
22  8-7.09238827E-01 0.00000000E+00 9.37790766E-01 8.25592652E-01 2.30710791E-03
22  9-7.20230758E-03 5.12441428E-03 0.00000000E+00 0.00000000E+00 1.82848968E-03
22 10 2.92624281E-02-2.75731772E-02 0.00000000E+00-1.75711840E-01 1.05625620E-01
22 11-7.09238827E-01 0.00000000E+00-9.37790766E-01 8.25592652E-01 2.30710791E-03
22 12-7.20230758E-03 5.12441428E-03 0.00000000E+00 0.00000000E+00-1.82848968E-03
22 13 3.87583659E-02-1.01596116E+00 3.87583659E-02-1.01596116E+00 1.89369298E-02
22 14-8.63211092E-01 1.89369298E-02-8.63211092E-01-1.72351219E-02 1.44198571E+00
22 15-1.72351219E-02 1.44198571E+00
23  1 3.85197452E-02-6.28283410E-02 0.00000000E+00-1.43168740E-01 3.34534069E-02
23  2-5.08946513E-01 0.00000000E+00-4.87775050E-01 6.50453554E-01-5.88215801E-03
23  3 2.56158262E-02-1.70787020E-02 0.00000000E+00 0.00000000E+00-5.46084609E-03
23  4-3.85197452E-02 6.28283410E-02 0.00000000E+00-1.43168740E-01-3.34534069E-02
23  5 5.08946513E-01 0.00000000E+00-4.87775050E-01-6.50453554E-01 5.88215801E-03
23  6-2.56158262E-02 1.70787020E-02 0.00000000E+00 0.00000000E+00-5.46084609E-03
23  7 5.02200878E-02-3.06023665E-02 0.00000000E+00-5.51993339E-02-1.82361179E-01
23  8-1.38817682E+00 0.00000000E+00-6.13591755E-01-5.92473761E-01 2.66639608E-03
23  9-1.80070496E-02 1.88016643E-02 0.00000000E+00 0.00000000E+00 1.16784189E-02
23 10-5.02200878E-02 3.06023665E-02 0.00000000E+00-5.51993339E-02 1.82361179E-01
23 11 1.38817682E+00 0.00000000E+00-6.13591755E-01 5.92473761E-01-2.66639608E-03
23 12 1.80070496E-02-1.88016643E-02 0.00000000E+00 0.00000000E+00 1.16784189E-02
23 13-4.15638750E-02 3.63727705E-01 4.15638750E-02-3.63727705E-01 7.02337482E-02
23 14 1.64025960E+00-7.02337482E-02-1.64025960E+00-5.20171206E-02-2.81092462E-01
23 15 5.20171206E-02 2.81092462E-01
24  1-5.25703386E-02 4.76894076E-02 0.00000000E+00-2.14902768E-02 1.61258524E-01
24  2 2.23762900E+00 0.00000000E+00-9.19302823E-01 1.29759639E+00-2.63143736E-03
24  3 1.62345313E-02-1.20865176E-03 0.00000000E+00 0.00000000E+00 1.46818953E-02
24  4-5.25703386E-02 4.76894076E-02 0.00000000E+00 2.14902768E-02 1.61258524E-01
24  5 2.23762900E+00 0.00000000E+00 9.19302823E-01 1.29759639E+00-2.63143736E-03
24  6 1.62345313E-02-1.20865176E-03 0.00000000E+00 0.00000000E+00-1.46818953E-02
24  7 6.03059275E-02-5.81947301E-03 0.00000000E+00-2.86096540E-02 7.91981301E-02
24  8-2.00029522E+00 0.00000000E+00-1.28377882E+00 1.40357313E+00 7.44437212E-03
24  9-1.07920858E-02 3.51909714E-03 0.00000000E+00 0.00000000E+00-1.46675936E-02
24 10 6.03059275E-02-5.81947301E-03 0.00000000E+00 2.86096540E-02 7.91981301E-02
24 11-2.00029522E+00 0.00000000E+00 1.28377882E+00 1.40357313E+00 7.44437212E-03
24 12-1.07920858E-02 3.51909714E-03 0.00000000E+00 0.00000000E+00 1.46675936E-02
24 13 4.61930283E-02 3.77729456E-01 4.61930283E-02 3.77729456E-01-1.41118504E-02
24 14-1.10936030E-01-1.41118504E-02-1.10936030E-01-7.33696306E-02-4.09836093E-01
24 15-7.33696306E-02-4.09836093E-01
25  1-9.31173223E-02 1.16600294E-02 0.00000000E+00 9.76679055E-02 1.47775484E-01
25  2 3.35163041E+00 0.00000000E+00 1.38179074E+00 2.09337875E+00-8.15139814E-03
25  3 4.75901816E-03 1.89824431E-02 0.00000000E+00 0.00000000E+00-1.85224853E-02
25  4 9.31173223E-02-1.16600294E-02 0.00000000E+00 9.76679055E-02-1.47775484E-01
25  5-3.35163041E+00 0.00000000E+00 1.38179074E+00-2.09337875E+00 8.15139814E-03
25  6-4.75901816E-03-1.89824431E-02 0.00000000E+00 0.00000000E+00-1.85224853E-02
25  7 4.31328726E-02 2.87037321E-02 0.00000000E+00-3.92956870E-02-9.61003550E-02