 $CONTRL  scftyp=mcscf $END
 $basis gbasis=n31 ngauss=6 ndfunc=1 $end

! norder=0 Порядок МО уже не меняется- задан ответ CASSCF исходной геометрии
 $Guess guess=moread norb=17 norder=0  prtmo=.t. $end

 $dEt group=c2  ncore=13 nact=4 neLs=4 SZ=0 nstate=1 $end
 $DATA
cis-Butadiene,initial geometry
 cn 2

 C           6.0   0.0000000000   0.7355852514  -0.0008505573
 C           6.0   0.0000000000   1.5344570931   1.0798461858
 H           1.0   0.0000000000   1.2054815643  -0.9828868787
 H           1.0   0.648308303      1.358995636      1.933110978 
 H           1.0  -0.657065877      2.395239663      1.138936595 
 $end
--- RHF ORBITALS --- GENERATED AT 19:26:56 LT   9-NOV-2009
cis-Butadiene,initial geometry                                                  
E(RHF)=     -154.9117624568, E(NUC)=  104.5079680431,   10 ITERS
--- NATURAL ORBITALS OF MCSCF --- GENERATED AT 19:33:15 LT   9-NOV-2009
cis-Butadiene,initial geometry                                                  
E(MCSCF)=     -154.9699510857, 11 ITERS, E(NUC)=  104.5079680431
 $VEC   
 1  1 7.01425469E-01 1.95623222E-02 0.00000000E+00 3.96780005E-05 2.88729667E-05
 1  2-6.16656837E-03 0.00000000E+00 5.41303109E-04-4.29006993E-04-1.81383546E-03
 1  3-1.69099890E-03-1.42738482E-03 0.00000000E+00 0.00000000E+00-1.25847943E-04
 1  4 7.01425469E-01 1.95623222E-02 0.00000000E+00-3.96780005E-05 2.88729667E-05
 1  5-6.16656837E-03 0.00000000E+00-5.41303109E-04-4.29006993E-04-1.81383546E-03
 1  6-1.69099890E-03-1.42738482E-03 0.00000000E+00 0.00000000E+00 1.25847943E-04
 1  7 5.82606489E-02 1.33193966E-03 0.00000000E+00-1.29927406E-04 1.00259879E-04
 1  8 2.13624394E-03 0.00000000E+00 1.01081283E-03-6.85510286E-04-2.43760641E-04
 1  9-2.58521133E-04-2.80329517E-04 0.00000000E+00 0.00000000E+00-1.79985338E-05
 1 10 5.82606489E-02 1.33193966E-03 0.00000000E+00 1.29927406E-04 1.00259879E-04
 1 11 2.13624394E-03 0.00000000E+00-1.01081283E-03-6.85510286E-04-2.43760641E-04
 1 12-2.58521133E-04-2.80329517E-04 0.00000000E+00 0.00000000E+00 1.79985338E-05
 1 13-1.44975153E-04 1.27325634E-03-1.44975153E-04 1.27325634E-03-1.05666744E-04
 1 14-8.98245470E-05-1.05666744E-04-8.98245470E-05-1.44293598E-05 2.95182866E-04
 1 15-1.44293598E-05 2.95182866E-04
 2  1 7.01166788E-01 1.95227922E-02 0.00000000E+00 2.26675803E-04 1.01077563E-04
 2  2-1.19523045E-02 0.00000000E+00-1.68429859E-03-1.45634471E-03-1.57317636E-03
 2  3-7.03549449E-04-1.08543546E-03 0.00000000E+00 0.00000000E+00-2.83285921E-04
 2  4-7.01166788E-01-1.95227922E-02 0.00000000E+00 2.26675803E-04-1.01077563E-04
 2  5 1.19523045E-02 0.00000000E+00-1.68429859E-03 1.45634471E-03 1.57317636E-03
 2  6 7.03549449E-04 1.08543546E-03 0.00000000E+00 0.00000000E+00-2.83285921E-04
 2  7 6.44390807E-02 1.64985367E-03 0.00000000E+00-4.13155553E-05 1.27636222E-04
 2  8 2.99860293E-03 0.00000000E+00 1.21948053E-03-7.47190162E-04-1.78628260E-04
 2  9-3.09378872E-04-4.67869160E-04 0.00000000E+00 0.00000000E+00 3.53465472E-05
 2 10-6.44390807E-02-1.64985367E-03 0.00000000E+00-4.13155553E-05-1.27636222E-04
 2 11-2.99860293E-03 0.00000000E+00 1.21948053E-03 7.47190162E-04 1.78628260E-04
 2 12 3.09378872E-04 4.67869160E-04 0.00000000E+00 0.00000000E+00 3.53465472E-05
 2 13-6.60007862E-05 1.04998725E-03 6.60007862E-05-1.04998725E-03-8.11398882E-05
 2 14-1.76963228E-04 8.11398882E-05 1.76963228E-04-3.78436562E-05 1.44439829E-04
 2 15 3.78436562E-05-1.44439829E-04
 3  1-6.48971436E-02-1.92689326E-03 0.00000000E+00 9.76695654E-05-1.28796181E-04
 3  2 4.07735788E-03 0.00000000E+00-6.23282975E-04 1.19438340E-03 1.08422832E-04
 3  3-2.23307895E-04-1.23758810E-04 0.00000000E+00 0.00000000E+00 3.75276644E-05
 3  4 6.48971436E-02 1.92689326E-03 0.00000000E+00 9.76695654E-05 1.28796181E-04
 3  5-4.07735788E-03 0.00000000E+00-6.23282975E-04-1.19438340E-03-1.08422832E-04
 3  6 2.23307895E-04 1.23758810E-04 0.00000000E+00 0.00000000E+00 3.75276644E-05
 3  7 7.01029842E-01 1.95701497E-02 0.00000000E+00 7.94449802E-05-3.06780265E-05
 3  8-8.76617213E-03 0.00000000E+00-6.08144052E-04 3.49766990E-04-1.77637207E-03
 3  9-1.34326057E-03-1.26270054E-03 0.00000000E+00 0.00000000E+00-1.62945202E-04
 3 10-7.01029842E-01-1.95701497E-02 0.00000000E+00 7.94449802E-05 3.06780265E-05
 3 11 8.76617213E-03 0.00000000E+00-6.08144052E-04-3.49766990E-04 1.77637207E-03
 3 12 1.34326057E-03 1.26270054E-03 0.00000000E+00 0.00000000E+00-1.62945202E-04
 3 13-2.56293773E-05-2.17481694E-04 2.56293773E-05 2.17481694E-04-7.99121172E-05
 3 14 1.78724855E-03 7.99121172E-05-1.78724855E-03-1.01430834E-04 1.38837078E-03
 3 15 1.01430834E-04-1.38837078E-03
 4  1-5.87022547E-02-1.89935248E-03 0.00000000E+00 7.61815825E-05-1.71889469E-04
 4  2 3.18708281E-03 0.00000000E+00-7.32120528E-04 9.60755922E-04 7.15929247E-05
 4  3-2.47908833E-05-8.13627022E-05 0.00000000E+00 0.00000000E+00 5.57471921E-05
 4  4-5.87022547E-02-1.89935248E-03 0.00000000E+00-7.61815825E-05-1.71889469E-04
 4  5 3.18708281E-03 0.00000000E+00 7.32120528E-04 9.60755922E-04 7.15929247E-05
 4  6-2.47908833E-05-8.13627022E-05 0.00000000E+00 0.00000000E+00-5.57471921E-05
 4  7 7.01553287E-01 1.95460322E-02 0.00000000E+00 1.08133605E-05-6.58927455E-05
 4  8-8.13200164E-03 0.00000000E+00-2.21606778E-04 5.10432258E-04-1.83695840E-03
 4  9-1.41452082E-03-1.29262855E-03 0.00000000E+00 0.00000000E+00-1.60133943E-04
 4 10 7.01553287E-01 1.95460322E-02 0.00000000E+00-1.08133605E-05-6.58927455E-05
 4 11-8.13200164E-03 0.00000000E+00 2.21606778E-04 5.10432258E-04-1.83695840E-03
 4 12-1.41452082E-03-1.29262855E-03 0.00000000E+00 0.00000000E+00 1.60133943E-04
 4 13-2.13294155E-05-5.33088056E-05-2.13294155E-05-5.33088056E-05-1.11186434E-04
 4 14 1.33337480E-03-1.11186434E-04 1.33337480E-03-8.68695132E-05 1.52793242E-03
 4 15-8.68695132E-05 1.52793242E-03
 5  1-1.30730380E-01 2.49908555E-01 0.00000000E+00 2.37361298E-02 4.66248349E-02
 5  2 1.70684805E-01 0.00000000E+00 5.47673103E-03-2.98752466E-05-1.08299752E-02
 5  3 1.30060410E-02 7.15109237E-03 0.00000000E+00 0.00000000E+00-2.74188391E-03
 5  4-1.30730380E-01 2.49908555E-01 0.00000000E+00-2.37361298E-02 4.66248349E-02
 5  5 1.70684805E-01 0.00000000E+00-5.47673103E-03-2.98752466E-05-1.08299752E-02
 5  6 1.30060410E-02 7.15109237E-03 0.00000000E+00 0.00000000E+00 2.74188391E-03
 5  7-9.14066989E-02 1.72209361E-01 0.00000000E+00 5.16465030E-02-5.63735216E-02
 5  8 1.28267828E-01 0.00000000E+00 6.74820805E-03-5.66289632E-03-7.45586826E-03
 5  9 5.87225297E-03 7.58280079E-03 0.00000000E+00 0.00000000E+00-5.56850742E-03
 5 10-9.14066989E-02 1.72209361E-01 0.00000000E+00-5.16465030E-02-5.63735216E-02
 5 11 1.28267828E-01 0.00000000E+00-6.74820805E-03-5.66289632E-03-7.45586826E-03
 5 12 5.87225297E-03 7.58280079E-03 0.00000000E+00 0.00000000E+00 5.56850742E-03
 5 13 6.31808711E-02 1.00058803E-02 6.31808711E-02 1.00058803E-02 4.60870718E-02
 5 14 9.02354625E-03 4.60870718E-02 9.02354625E-03 4.11544663E-02 6.85596150E-03
 5 15 4.11544663E-02 6.85596150E-03
 6  1-8.89607483E-02 1.72086488E-01 0.00000000E+00-1.10202261E-01 6.56329480E-02
 6  2 1.25092915E-01 0.00000000E+00-2.57132457E-02-1.07013398E-02-5.81551536E-03
 6  3-4.07911094E-03 1.14320179E-02 0.00000000E+00 0.00000000E+00-7.00139569E-03
 6  4 8.89607483E-02-1.72086488E-01 0.00000000E+00-1.10202261E-01-6.56329480E-02
 6  5-1.25092915E-01 0.00000000E+00-2.57132457E-02 1.07013398E-02 5.81551536E-03
 6  6 4.07911094E-03-1.14320179E-02 0.00000000E+00 0.00000000E+00-7.00139569E-03
 6  7-1.25974125E-01 2.37948224E-01 0.00000000E+00 3.02687437E-02-6.09434714E-02
 6  8 2.08418983E-01 0.00000000E+00 6.53887081E-03-2.59210925E-03-1.01799587E-02
 6  9 8.34517742E-03 1.10062763E-02 0.00000000E+00 0.00000000E+00-3.88228322E-03
 6 10 1.25974125E-01-2.37948224E-01 0.00000000E+00 3.02687437E-02 6.09434714E-02
 6 11-2.08418983E-01 0.00000000E+00 6.53887081E-03 2.59210925E-03 1.01799587E-02
 6 12-8.34517742E-03-1.10062763E-02 0.00000000E+00 0.00000000E+00-3.88228322E-03
 6 13 5.50839038E-02 6.66762403E-03-5.50839038E-02-6.66762403E-03 6.76503483E-02
 6 14 9.95089657E-03-6.76503483E-02-9.95089657E-03 7.74616179E-02 2.09960202E-02
 6 15-7.74616179E-02-2.09960202E-02
 7  1 7.41598268E-02-1.45968048E-01 0.00000000E+00-1.36073671E-01 1.25922802E-01
 7  2-1.34806427E-01 0.00000000E+00-3.33624269E-02 4.30429372E-02 6.38211411E-03
 7  3-1.31305902E-02-1.78709114E-03 0.00000000E+00 0.00000000E+00-7.52770060E-03
 7  4 7.41598268E-02-1.45968048E-01 0.00000000E+00 1.36073671E-01 1.25922802E-01
 7  5-1.34806427E-01 0.00000000E+00 3.33624269E-02 4.30429372E-02 6.38211411E-03
 7  6-1.31305902E-02-1.78709114E-03 0.00000000E+00 0.00000000E+00 7.52770060E-03
 7  7-1.02603467E-01 1.97309356E-01 0.00000000E+00-4.07664283E-02 5.42137940E-02
 7  8 1.86642095E-01 0.00000000E+00-1.89661965E-02 2.26966060E-02-8.52454996E-03
 7  9 1.06636583E-02 8.48144496E-03 0.00000000E+00 0.00000000E+00 6.70772463E-03
 7 10-1.02603467E-01 1.97309356E-01 0.00000000E+00 4.07664283E-02 5.42137940E-02
 7 11 1.86642095E-01 0.00000000E+00 1.89661965E-02 2.26966060E-02-8.52454996E-03
 7 12 1.06636583E-02 8.48144496E-03 0.00000000E+00 0.00000000E+00-6.70772463E-03
 7 13-8.58291488E-02-3.41286587E-02-8.58291488E-02-3.41286587E-02 1.02827739E-01
 7 14 4.68671571E-02 1.02827739E-01 4.68671571E-02 9.96843609E-02 4.09240537E-02
 7 15 9.96843609E-02 4.09240537E-02
 8  1 8.52159567E-02-1.68453604E-01 0.00000000E+00 1.02122336E-01 7.29282024E-02
 8  2-1.64572319E-01 0.00000000E+00 2.98548648E-02 6.90967095E-02 5.71530956E-03
 8  3 3.63450975E-03-1.29348854E-02 0.00000000E+00 0.00000000E+00-8.04710152E-03
 8  4-8.52159567E-02 1.68453604E-01 0.00000000E+00 1.02122336E-01-7.29282024E-02
 8  5 1.64572319E-01 0.00000000E+00 2.98548648E-02-6.90967095E-02-5.71530956E-03
 8  6-3.63450975E-03 1.29348854E-02 0.00000000E+00 0.00000000E+00-8.04710152E-03
 8  7-6.07728696E-02 1.17360909E-01 0.00000000E+00-8.03182897E-02 1.81999377E-01
 8  8 1.20202459E-01 0.00000000E+00-4.29414320E-02 7.03113683E-02-5.40900305E-03
 8  9 1.13144241E-02 4.04502232E-03 0.00000000E+00 0.00000000E+00 1.32470189E-02
 8 10 6.07728696E-02-1.17360909E-01 0.00000000E+00-8.03182897E-02-1.81999377E-01
 8 11-1.20202459E-01 0.00000000E+00-4.29414320E-02-7.03113683E-02 5.40900305E-03
 8 12-1.13144241E-02-4.04502232E-03 0.00000000E+00 0.00000000E+00 1.32470189E-02
 8 13-1.35751519E-01-6.21653217E-02 1.35751519E-01 6.21653217E-02 1.29045611E-01
 8 14 7.22104268E-02-1.29045611E-01-7.22104268E-02 9.14302675E-02 4.74121084E-02
 8 15-9.14302675E-02-4.74121084E-02
 9  1-6.70035159E-03 1.74220820E-02 0.00000000E+00 1.75893559E-01 1.80396757E-01
 9  2 6.26673973E-03 0.00000000E+00 6.05913893E-02 6.98931134E-02 5.13505808E-04
 9  3 4.14479362E-03-8.49063801E-03 0.00000000E+00 0.00000000E+00-2.74601849E-03
 9  4-6.70035159E-03 1.74220820E-02 0.00000000E+00-1.75893559E-01 1.80396757E-01
 9  5 6.26673973E-03 0.00000000E+00-6.05913893E-02 6.98931134E-02 5.13505808E-04
 9  6 4.14479362E-03-8.49063801E-03 0.00000000E+00 0.00000000E+00 2.74601849E-03
 9  7 1.05622132E-02-1.92092892E-02 0.00000000E+00 2.05431350E-01 8.01916449E-02
 9  8-3.31372521E-02 0.00000000E+00 8.31805427E-02 3.61608007E-02 1.02411249E-03
 9  9-8.54269879E-03 5.28880750E-03 0.00000000E+00 0.00000000E+00-1.62232427E-03
 9 10 1.05622132E-02-1.92092892E-02 0.00000000E+00-2.05431350E-01 8.01916449E-02
 9 11-3.31372521E-02 0.00000000E+00-8.31805427E-02 3.61608007E-02 1.02411249E-03
 9 12-8.54269879E-03 5.28880750E-03 0.00000000E+00 0.00000000E+00 1.62232427E-03
 9 13-1.28993137E-01-8.91537803E-02-1.28993137E-01-8.91537803E-02 7.62147219E-02
 9 14 5.12298220E-02 7.62147219E-02 5.12298220E-02-1.29578347E-01-8.39249489E-02
 9 15-1.29578347E-01-8.39249489E-02
10  1 1.05883522E-02-2.13496121E-02 0.00000000E+00 1.98618065E-01-2.06259736E-01
10  2-6.66040732E-03 0.00000000E+00 6.54839304E-02-8.30112595E-02-3.45012461E-05
10  3 5.39374719E-03 1.51642423E-04 0.00000000E+00 0.00000000E+00 7.91565220E-03
10  4 1.05883522E-02-2.13496121E-02 0.00000000E+00-1.98618065E-01-2.06259736E-01
10  5-6.66040732E-03 0.00000000E+00-6.54839304E-02-8.30112595E-02-3.45012461E-05
10  6 5.39374719E-03 1.51642423E-04 0.00000000E+00 0.00000000E+00-7.91565220E-03
10  7 1.73515395E-03-8.10536605E-03 0.00000000E+00-9.35276908E-02 2.80343963E-01
10  8 2.95966523E-02 0.00000000E+00-2.01952520E-02 1.11533239E-01-1.36835398E-03
10  9 3.62710675E-03 6.39024335E-03 0.00000000E+00 0.00000000E+00 1.73158168E-02
10 10 1.73515395E-03-8.10536605E-03 0.00000000E+00 9.35276908E-02 2.80343963E-01
10 11 2.95966523E-02 0.00000000E+00 2.01952520E-02 1.11533239E-01-1.36835398E-03
10 12 3.62710675E-03 6.39024335E-03 0.00000000E+00 0.00000000E+00-1.73158168E-02
10 13 5.29541039E-02 4.05782818E-02 5.29541039E-02 4.05782818E-02 1.43907011E-01
10 14 1.09370476E-01 1.43907011E-01 1.09370476E-01 4.10757713E-02 3.74542400E-02
10 15 4.10757713E-02 3.74542400E-02
11  1-1.81260837E-02 4.04879906E-02 0.00000000E+00-3.76595278E-03 1.74514069E-01
11  2 1.45748396E-02 0.00000000E+00-1.31654115E-02 5.80217659E-02 1.77666130E-04
11  3-9.11031008E-03 3.04985602E-03 0.00000000E+00 0.00000000E+00-1.25801996E-02
11  4 1.81260837E-02-4.04879906E-02 0.00000000E+00-3.76595278E-03-1.74514069E-01
11  5-1.45748396E-02 0.00000000E+00-1.31654115E-02-5.80217659E-02-1.77666130E-04
11  6 9.11031008E-03-3.04985602E-03 0.00000000E+00 0.00000000E+00-1.25801996E-02
11  7-1.07104544E-02 2.24250865E-02 0.00000000E+00 3.04622757E-01 2.33892405E-02
11  8 1.89615627E-02 0.00000000E+00 1.46050308E-01 2.94047552E-02 9.51845997E-05
11  9-1.88230594E-02 1.35734251E-02 0.00000000E+00 0.00000000E+00-4.89770512E-03
11 10 1.07104544E-02-2.24250865E-02 0.00000000E+00 3.04622757E-01-2.33892405E-02
11 11-1.89615627E-02 0.00000000E+00 1.46050308E-01-2.94047552E-02-9.51845997E-05
11 12 1.88230594E-02-1.35734251E-02 0.00000000E+00 0.00000000E+00-4.89770512E-03
11 13-8.01375079E-02-7.14820023E-02 8.01375079E-02 7.14820023E-02 8.82215347E-02
11 14 5.39981908E-02-8.82215347E-02-5.39981908E-02-1.84440482E-01-1.40695349E-01
11 15 1.84440482E-01 1.40695349E-01
12  1-1.13138271E-02 1.97368917E-02 0.00000000E+00 1.77103637E-02-2.43855595E-01
12  2 4.35751305E-02 0.00000000E+00-3.09826736E-02-1.40722655E-01-1.48279471E-03
12  3-7.15357059E-03 1.54219278E-02 0.00000000E+00 0.00000000E+00 2.41351090E-02
12  4 1.13138271E-02-1.97368917E-02 0.00000000E+00 1.77103637E-02 2.43855595E-01
12  5-4.35751305E-02 0.00000000E+00-3.09826736E-02 1.40722655E-01 1.48279471E-03
12  6 7.15357059E-03-1.54219278E-02 0.00000000E+00 0.00000000E+00 2.41351090E-02
12  7 1.62477528E-02-3.49010481E-02 0.00000000E+00 3.08647059E-02 2.56586831E-01
12  8-2.27964669E-02 0.00000000E+00 4.42358468E-02 1.34212548E-01 1.39994311E-04
12  9-1.08995271E-02 1.70813630E-02 0.00000000E+00 0.00000000E+00 1.36118253E-02
12 10-1.62477528E-02 3.49010481E-02 0.00000000E+00 3.08647059E-02-2.56586831E-01
12 11 2.27964669E-02 0.00000000E+00 4.42358468E-02-1.34212548E-01-1.39994311E-04
12 12 1.08995271E-02-1.70813630E-02 0.00000000E+00 0.00000000E+00 1.36118253E-02
12 13 1.69048691E-01 1.37471574E-01-1.69048691E-01-1.37471574E-01 1.55524872E-01
12 14 1.29591640E-01-1.55524872E-01-1.29591640E-01-5.85230338E-02-3.93455695E-02
12 15 5.85230338E-02 3.93455695E-02
13  1-1.44948182E-02 3.35505513E-02 0.00000000E+00 2.83792265E-01 8.77324327E-02
13  2 3.84270147E-02 0.00000000E+00 1.41024695E-01 6.62469689E-02 1.44807088E-05
13  3 2.02209560E-02-2.32399689E-02 0.00000000E+00 0.00000000E+00-5.86858285E-03
13  4-1.44948182E-02 3.35505513E-02 0.00000000E+00-2.83792265E-01 8.77324327E-02
13  5 3.84270147E-02 0.00000000E+00-1.41024695E-01 6.62469689E-02 1.44807088E-05
13  6 2.02209560E-02-2.32399689E-02 0.00000000E+00 0.00000000E+00 5.86858285E-03
13  7 3.05347139E-03-6.10527702E-03 0.00000000E+00-1.98050048E-01-5.94593029E-02
13  8-3.20003722E-03 0.00000000E+00-1.25498091E-01-4.32024422E-02 2.56549664E-05
13  9 2.33008764E-02-2.10701726E-02 0.00000000E+00 0.00000000E+00-4.44572610E-03
13 10 3.05347139E-03-6.10527702E-03 0.00000000E+00 1.98050048E-01-5.94593029E-02
13 11-3.20003722E-03 0.00000000E+00 1.25498091E-01-4.32024422E-02 2.56549664E-05
13 12 2.33008764E-02-2.10701726E-02 0.00000000E+00 0.00000000E+00 4.44572610E-03
13 13-1.32332136E-01-1.19127699E-01-1.32332136E-01-1.19127699E-01-1.08192799E-01
13 14-1.01321031E-01-1.08192799E-01-1.01321031E-01 1.48006347E-01 1.26343739E-01
13 15 1.48006347E-01 1.26343739E-01
14  1 0.00000000E+00 0.00000000E+00 3.02178254E-01 0.00000000E+00 0.00000000E+00
14  2 0.00000000E+00 1.99411773E-01 0.00000000E+00 0.00000000E+00 0.00000000E+00
14  3 0.00000000E+00 0.00000000E+00 2.77905272E-03 1.05249088E-02 0.00000000E+00
14  4 0.00000000E+00 0.00000000E+00 3.02178254E-01 0.00000000E+00 0.00000000E+00
14  5 0.00000000E+00 1.99411773E-01 0.00000000E+00 0.00000000E+00 0.00000000E+00
14  6 0.00000000E+00 0.00000000E+00-2.77905272E-03 1.05249088E-02 0.00000000E+00
14  7 0.00000000E+00 0.00000000E+00 2.31079795E-01 0.00000000E+00 0.00000000E+00
14  8 0.00000000E+00 1.64884663E-01 0.00000000E+00 0.00000000E+00 0.00000000E+00
14  9 0.00000000E+00 0.00000000E+00 9.67200122E-03-1.18915009E-02 0.00000000E+00
14 10 0.00000000E+00 0.00000000E+00 2.31079795E-01 0.00000000E+00 0.00000000E+00
14 11 0.00000000E+00 1.64884663E-01 0.00000000E+00 0.00000000E+00 0.00000000E+00
14 12 0.00000000E+00 0.00000000E+00-9.67200122E-03-1.18915009E-02 0.00000000E+00
14 13 0.00000000E+00 0.00000000E+00 0.00000000E+00 0.00000000E+00 0.00000000E+00
14 14 0.00000000E+00 0.00000000E+00 0.00000000E+00 0.00000000E+00 0.00000000E+00
14 15 0.00000000E+00 0.00000000E+00
15  1 0.00000000E+00 0.00000000E+00 2.48905986E-01 0.00000000E+00 0.00000000E+00
15  2 0.00000000E+00 2.09143889E-01 0.00000000E+00 0.00000000E+00 0.00000000E+00
15  3 0.00000000E+00 0.00000000E+00-1.83941492E-02 1.25733668E-02 0.00000000E+00
15  4 0.00000000E+00 0.00000000E+00-2.48905986E-01 0.00000000E+00 0.00000000E+00
15  5 0.00000000E+00-2.09143889E-01 0.00000000E+00 0.00000000E+00 0.00000000E+00
15  6 0.00000000E+00 0.00000000E+00-1.83941492E-02-1.25733668E-02 0.00000000E+00
15  7 0.00000000E+00 0.00000000E+00 3.17795121E-01 0.00000000E+00 0.00000000E+00
15  8 0.00000000E+00 2.56155548E-01 0.00000000E+00 0.00000000E+00 0.00000000E+00
15  9 0.00000000E+00 0.00000000E+00 7.46236542E-03-1.19533885E-02 0.00000000E+00
15 10 0.00000000E+00 0.00000000E+00-3.17795121E-01 0.00000000E+00 0.00000000E+00
15 11 0.00000000E+00-2.56155548E-01 0.00000000E+00 0.00000000E+00 0.00000000E+00
15 12 0.00000000E+00 0.00000000E+00 7.46236542E-03 1.19533885E-02 0.00000000E+00
15 13 0.00000000E+00 0.00000000E+00 0.00000000E+00 0.00000000E+00 0.00000000E+00
15 14 0.00000000E+00 0.00000000E+00 0.00000000E+00 0.00000000E+00 0.00000000E+00
15 15 0.00000000E+00 0.00000000E+00
16  1 0.00000000E+00 0.00000000E+00-3.28909851E-01 0.00000000E+00 0.00000000E+00
16  2 0.00000000E+00-2.18260444E-01 0.00000000E+00 0.00000000E+00 0.00000000E+00
16  3 0.00000000E+00 0.00000000E+00-1.42964857E-02 7.92134249E-03 0.00000000E+00
16  4 0.00000000E+00 0.00000000E+00-3.28909851E-01 0.00000000E+00 0.00000000E+00
16  5 0.00000000E+00-2.18260444E-01 0.00000000E+00 0.00000000E+00 0.00000000E+00
16  6 0.00000000E+00 0.00000000E+00 1.42964857E-02 7.92134249E-03 0.00000000E+00
16  7 0.00000000E+00 0.00000000E+00 4.24390856E-01 0.00000000E+00 0.00000000E+00
16  8 0.00000000E+00 3.05353064E-01 0.00000000E+00 0.00000000E+00 0.00000000E+00
16  9 0.00000000E+00 0.00000000E+00-1.85557034E-03 1.09820329E-03 0.00000000E+00
16 10 0.00000000E+00 0.00000000E+00 4.24390856E-01 0.00000000E+00 0.00000000E+00
16 11 0.00000000E+00 3.05353064E-01 0.00000000E+00 0.00000000E+00 0.00000000E+00
16 12 0.00000000E+00 0.00000000E+00 1.85557034E-03 1.09820329E-03 0.00000000E+00
16 13 0.00000000E+00 0.00000000E+00 0.00000000E+00 0.00000000E+00 0.00000000E+00
16 14 0.00000000E+00 0.00000000E+00 0.00000000E+00 0.00000000E+00 0.00000000E+00
16 15 0.00000000E+00 0.00000000E+00
17  1 0.00000000E+00 0.00000000E+00 4.86119900E-01 0.00000000E+00 0.00000000E+00
17  2 0.00000000E+00 3.96868012E-01 0.00000000E+00 0.00000000E+00 0.00000000E+00
17  3 0.00000000E+00 0.00000000E+00-1.11229815E-02 5.64643288E-04 0.00000000E+00
17  4 0.00000000E+00 0.00000000E+00-4.86119900E-01 0.00000000E+00 0.00000000E+00
17  5 0.00000000E+00-3.96868012E-01 0.00000000E+00 0.00000000E+00 0.00000000E+00
17  6 0.00000000E+00 0.00000000E+00-1.11229815E-02-5.64643288E-04 0.00000000E+00
17  7 0.00000000E+00 0.00000000E+00-3.74400406E-01 0.00000000E+00 0.00000000E+00
17  8 0.00000000E+00-2.54336371E-01 0.00000000E+00 0.00000000E+00 0.00000000E+00
17  9 0.00000000E+00 0.00000000E+00 4.79780786E-03-7.37322264E-03 0.00000000E+00
17 10 0.00000000E+00 0.00000000E+00 3.74400406E-01 0.00000000E+00 0.00000000E+00
17 11 0.00000000E+00 2.54336371E-01 0.00000000E+00 0.00000000E+00 0.00000000E+00
17 12 0.00000000E+00 0.00000000E+00 4.79780786E-03 7.37322264E-03 0.00000000E+00
17 13 0.00000000E+00 0.00000000E+00 0.00000000E+00 0.00000000E+00 0.00000000E+00
17 14 0.00000000E+00 0.00000000E+00 0.00000000E+00 0.00000000E+00 0.00000000E+00
17 15 0.00000000E+00 0.00000000E+00
 $END   
