!вставьте сюда начльное приближение для МО
! и начальный Гессиан см. информацию из расчета
! 4_C4H6_initial-cis-c2-cas45-ih - расчета начального гессиана в CASSCF

 $CONTRL 
 runtyp=sadpoint
 scftyp=mcscf
 $END
 $basis gbasis=n31 ngauss=6 ndfunc=1 $end
 $statpt nstep=100 hssend=.t.  $end
 $Guess guess=moread norb=17 norder=0 iorder(17)=19,17,18  prtmo=.t. $end
 $dEt group=c2  ncore=13 nact=4 neLs=4 SZ=0 nstate=1
 $end
 $force method=seminum nvib=2 $end
 $DATA
cis-Butadiene,initial geometry
 cn 2

 C           6.0   0.000000000   0.7355852514  -0.0008505573
 C           6.0   0.000000000   1.265790513    1.234051888
 H           1.0   0.000000000   1.2054815643  -0.9828868787
 H           1.0   0.648308303   0.899620849    2.024474120
 H           1.0  -0.657065877   2.090175937    1.488663319
 $end

--- NATURAL ORBITALS OF MCSCF --- GENERATED AT Mon Apr 04 18:25:59 2016
cis-Butadiene,initial geometry                                                  
E(MCSCF)=     -154.8812681093, E(NUC)=      107.8227361083
 $VEC   
 1  1 7.01420460E-01 1.96152413E-02 4.92238811E-05 1.41833260E-04 1.70456583E-04
 1  2-6.20310865E-03 5.44846258E-05 5.04717334E-04-5.82749580E-04-1.80607730E-03
 1  3-1.75395597E-03-1.30679341E-03-1.03001416E-05 7.09377151E-06-7.80411791E-05
 1  4 7.01420460E-01 1.96152413E-02-4.92238811E-05-1.41833260E-04 1.70456583E-04
 1  5-6.20310865E-03-5.44846258E-05-5.04717334E-04-5.82749580E-04-1.80607730E-03
 1  6-1.75395597E-03-1.30679341E-03-1.03001416E-05-7.09377151E-06 7.80411791E-05
 1  7 5.82770398E-02 1.43482889E-03 2.61841891E-05 8.38000688E-05 3.03233661E-04
 1  8 1.71374180E-03-3.19977712E-05 6.15926576E-04-1.14129585E-03-1.64949332E-04
 1  9-2.22856274E-04-2.67115955E-04 5.53339567E-06-1.26196514E-05-4.31815889E-06
 1 10 5.82770398E-02 1.43482889E-03-2.61841891E-05-8.38000688E-05 3.03233661E-04
 1 11 1.71374180E-03 3.19977712E-05-6.15926576E-04-1.14129585E-03-1.64949332E-04
 1 12-2.22856274E-04-2.67115955E-04 5.53339567E-06 1.26196514E-05 4.31815889E-06
 1 13-2.56930595E-04 1.20216863E-03-2.56930595E-04 1.20216863E-03-2.78570287E-06
 1 14 3.93171583E-04-2.78570287E-06 3.93171583E-04-1.00148348E-04 3.21761341E-04
 1 15-1.00148348E-04 3.21761341E-04
 2  1 7.01233394E-01 1.95464077E-02 8.85465981E-05 1.51524774E-04 2.08557177E-04
 2  2-1.28638003E-02 1.02326593E-04-2.02424494E-03-1.93155371E-03-1.58528749E-03
 2  3-9.93896086E-04-9.48262336E-04-6.96948819E-06 1.13455186E-05-1.21287619E-04
 2  4-7.01233394E-01-1.95464077E-02 8.85465981E-05 1.51524774E-04-2.08557177E-04
 2  5 1.28638003E-02 1.02326593E-04-2.02424494E-03 1.93155371E-03 1.58528749E-03
 2  6 9.93896086E-04 9.48262336E-04 6.96948819E-06 1.13455186E-05-1.21287619E-04
 2  7 6.44497437E-02 1.61948889E-03-2.63921359E-05-8.05258345E-06 2.45483861E-04
 2  8 3.20054458E-03-1.10991049E-04 1.13074473E-03-1.36402598E-03-1.65067942E-04
 2  9-3.99410418E-04-4.24113019E-04 4.04757039E-06-2.44221089E-05 4.53968029E-05
 2 10-6.44497437E-02-1.61948889E-03-2.63921359E-05-8.05258345E-06-2.45483861E-04
 2 11-3.20054458E-03-1.10991049E-04 1.13074473E-03 1.36402598E-03 1.65067942E-04
 2 12 3.99410418E-04 4.24113019E-04-4.04757039E-06-2.44221089E-05 4.53968029E-05
 2 13-2.00309768E-04 9.50151055E-04 2.00309768E-04-9.50151055E-04-7.02696912E-05
 2 14 1.87306285E-04 7.02696912E-05-1.87306285E-04-1.55670389E-04 2.80184715E-04
 2 15 1.55670389E-04-2.80184715E-04
 3  1-6.48782386E-02-1.75398187E-03-6.29301675E-05 3.59255670E-06-1.60266283E-04
 3  2 4.67436266E-03-6.85217836E-05-7.95230694E-04 1.60493570E-03 1.00048347E-04
 3  3-2.12718429E-04-1.36306800E-04 5.30894685E-05 1.21639783E-05 8.29329733E-06
 3  4 6.48782386E-02 1.75398187E-03-6.29301675E-05 3.59255670E-06 1.60266283E-04
 3  5-4.67436266E-03-6.85217836E-05-7.95230694E-04-1.60493570E-03-1.00048347E-04
 3  6 2.12718429E-04 1.36306800E-04-5.30894685E-05 1.21639783E-05 8.29329733E-06
 3  7 7.01018421E-01 1.99544651E-02-9.47854827E-06 2.32693689E-04-1.93229185E-04
 3  8-9.36511149E-03 5.58329417E-05-1.26420375E-03 1.27917427E-03-1.52858216E-03
 3  9-1.61618723E-03-1.25321779E-03-1.77841661E-04-4.81382291E-05-2.06361582E-04
 3 10-7.01018421E-01-1.99544651E-02-9.47854827E-06 2.32693689E-04 1.93229185E-04
 3 11 9.36511149E-03 5.58329417E-05-1.26420375E-03-1.27917427E-03 1.52858216E-03
 3 12 1.61618723E-03 1.25321779E-03 1.77841661E-04-4.81382291E-05-2.06361582E-04
 3 13 1.13107937E-05-2.08668033E-04-1.13107937E-05 2.08668033E-04 1.40365328E-04
 3 14 1.00362293E-03-1.40365328E-04-1.00362293E-03-1.35544765E-04 1.09301316E-03
 3 15 1.35544765E-04-1.09301316E-03
 4  1-5.86667767E-02-1.90198627E-03 2.37350836E-05-5.39170328E-06-2.80890216E-04
 4  2 2.60076873E-03-8.45296295E-05-4.47904409E-04 8.08211643E-04 9.45170864E-05
 4  3 6.42801058E-05-1.03207388E-04 4.76968003E-05 1.78618933E-05 1.08434669E-04
 4  4-5.86667767E-02-1.90198627E-03-2.37350836E-05 5.39170328E-06-2.80890216E-04
 4  5 2.60076873E-03 8.45296295E-05 4.47904409E-04 8.08211643E-04 9.45170864E-05
 4  6 6.42801058E-05-1.03207388E-04 4.76968003E-05-1.78618933E-05-1.08434669E-04
 4  7 7.01600098E-01 1.95520171E-02 1.62212229E-04 1.84788675E-05-1.49092646E-04
 4  8-8.34215492E-03-1.35801054E-04-9.60808197E-05 1.91762203E-05-1.65840638E-03
 4  9-1.46239365E-03-1.21975617E-03-1.69163347E-04-7.00539654E-05-2.09933655E-04
 4 10 7.01600098E-01 1.95520171E-02-1.62212229E-04-1.84788675E-05-1.49092646E-04
 4 11-8.34215492E-03 1.35801054E-04 9.60808197E-05 1.91762203E-05-1.65840638E-03
 4 12-1.46239365E-03-1.21975617E-03-1.69163347E-04 7.00539654E-05 2.09933655E-04
 4 13-7.42851870E-06-3.67370986E-05-7.42851870E-06-3.67370986E-05-2.09345870E-04
 4 14 1.84524305E-03-2.09345870E-04 1.84524305E-03-1.82556302E-05 1.73758414E-03
 4 15-1.82556302E-05 1.73758414E-03
 5  1-1.28465979E-01 2.43333229E-01 5.36588190E-05 3.19649486E-02 5.03737974E-02
 5  2 1.66123402E-01 2.37846937E-03 1.02311279E-03-4.37169109E-03-1.09521417E-02
 5  3 9.77201421E-03 1.06329265E-02 2.72664767E-04 2.71077236E-04-4.32236964E-04
 5  4-1.28465979E-01 2.43333229E-01-5.36588190E-05-3.19649486E-02 5.03737974E-02
 5  5 1.66123402E-01-2.37846937E-03-1.02311279E-03-4.37169109E-03-1.09521417E-02
 5  6 9.77201421E-03 1.06329265E-02 2.72664767E-04-2.71077236E-04 4.32236964E-04
 5  7-9.22731387E-02 1.71542081E-01-4.07340621E-03 4.29934396E-02-6.47177932E-02
 5  8 1.33599183E-01-3.77381928E-03 1.09637766E-02-1.39235255E-03-3.38105017E-03
 5  9 1.21067598E-04 8.87526234E-03-4.58263417E-03-3.01197819E-03-6.28369324E-03
 5 10-9.22731387E-02 1.71542081E-01 4.07340621E-03-4.29934396E-02-6.47177932E-02
 5 11 1.33599183E-01 3.77381928E-03-1.09637766E-02-1.39235255E-03-3.38105017E-03
 5 12 1.21067598E-04 8.87526234E-03-4.58263417E-03 3.01197819E-03 6.28369324E-03
 5 13 6.40446834E-02 1.30410419E-02 6.40446834E-02 1.30410419E-02 4.88510928E-02
 5 14 4.19735805E-03 4.88510928E-02 4.19735805E-03 3.84148970E-02 4.60611097E-03
 5 15 3.84148970E-02 4.60611097E-03
 6  1 9.09353863E-02-1.77916153E-01-5.79842670E-03 9.88295820E-02-7.64927628E-02
 6  2-1.33961089E-01-5.59125860E-03 2.13739463E-02 1.31082349E-02 6.38655563E-03
 6  3 7.97562252E-03-1.55727175E-02-9.26989264E-04-2.14446084E-04 5.27951491E-03
 6  4-9.09353863E-02 1.77916153E-01-5.79842670E-03 9.88295820E-02 7.64927628E-02
 6  5 1.33961089E-01-5.59125860E-03 2.13739463E-02-1.31082349E-02-6.38655563E-03
 6  6-7.97562252E-03 1.55727175E-02 9.26989264E-04-2.14446084E-04 5.27951491E-03
 6  7 1.26426209E-01-2.40862557E-01 2.76978102E-04-1.69850238E-02 6.56303921E-02
 6  8-2.13957933E-01 1.54378484E-03-6.01992965E-03 7.20135011E-03 9.93988532E-04
 6  9 1.61994792E-03-1.23175413E-02 8.75831982E-03 4.22163884E-03 5.79159778E-03
 6 10-1.26426209E-01 2.40862557E-01 2.76978102E-04-1.69850238E-02-6.56303921E-02
 6 11 2.13957933E-01 1.54378484E-03-6.01992965E-03-7.20135011E-03-9.93988532E-04
 6 12-1.61994792E-03 1.23175413E-02-8.75831982E-03 4.22163884E-03 5.79159778E-03
 6 13-5.79060544E-02-1.07795251E-02 5.79060544E-02 1.07795251E-02-7.13839530E-02
 6 14-2.05716980E-02 7.13839530E-02 2.05716980E-02-7.44695813E-02-1.68898983E-02
 6 15 7.44695813E-02 1.68898983E-02
 7  1 7.56263938E-02-1.47435432E-01-2.69158322E-03-1.32943794E-01 1.28731660E-01
 7  2-1.44139568E-01-4.96111114E-03-3.73015194E-02 3.96439967E-02 5.71166858E-03
 7  3-1.41002973E-02 1.81974878E-04 8.06907180E-04 1.43487374E-04-6.95247037E-03
 7  4 7.56263938E-02-1.47435432E-01 2.69158322E-03 1.32943794E-01 1.28731660E-01
 7  5-1.44139568E-01 4.96111114E-03 3.73015194E-02 3.96439967E-02 5.71166858E-03
 7  6-1.41002973E-02 1.81974878E-04 8.06907180E-04-1.43487374E-04 6.95247037E-03
 7  7-1.01342545E-01 1.92141646E-01-5.29802022E-04-3.76866170E-02 5.79392350E-02
 7  8 1.98775404E-01-1.03855321E-03-1.36745446E-02 2.49052378E-02 2.26370158E-03
 7  9 3.50180548E-03 3.65999594E-03-1.22950616E-02-4.93194924E-03 2.02366800E-03
 7 10-1.01342545E-01 1.92141646E-01 5.29802022E-04 3.76866170E-02 5.79392350E-02
 7 11 1.98775404E-01 1.03855321E-03 1.36745446E-02 2.49052378E-02 2.26370158E-03
 7 12 3.50180548E-03 3.65999594E-03-1.22950616E-02 4.93194924E-03-2.02366800E-03
 7 13-8.40527581E-02-3.10438958E-02-8.40527581E-02-3.10438958E-02 9.74305995E-02
 7 14 3.59214483E-02 9.74305995E-02 3.59214483E-02 1.01051963E-01 4.19912714E-02
 7 15 1.01051963E-01 4.19912714E-02
 8  1 8.71492965E-02-1.74418297E-01-1.66736421E-02 1.01106515E-01 6.36351509E-02
 8  2-1.59063999E-01-1.28605487E-02 4.35655517E-02 6.98568213E-02 5.50850880E-03
 8  3 5.39667543E-03-1.45358115E-02-1.80704184E-04-2.40724628E-04-8.46803356E-03
 8  4-8.71492965E-02 1.74418297E-01-1.66736421E-02 1.01106515E-01-6.36351509E-02
 8  5 1.59063999E-01-1.28605487E-02 4.35655517E-02-6.98568213E-02-5.50850880E-03
 8  6-5.39667543E-03 1.45358115E-02 1.80704184E-04-2.40724628E-04-8.46803356E-03
 8  7-6.26002642E-02 1.19813357E-01-1.29756320E-02-6.31496183E-02 1.82297290E-01
 8  8 1.16103655E-01-5.02440393E-03-3.97935671E-02 7.34014075E-02 6.44452931E-03
 8  9 7.50475961E-03-3.21657354E-03-1.36241629E-02-5.44037375E-03 3.24122533E-03
 8 10 6.26002642E-02-1.19813357E-01-1.29756320E-02-6.31496183E-02-1.82297290E-01
 8 11-1.16103655E-01-5.02440393E-03-3.97935671E-02-7.34014075E-02-6.44452931E-03
 8 12-7.50475961E-03 3.21657354E-03 1.36241629E-02-5.44037375E-03 3.24122533E-03
 8 13-1.36476443E-01-6.12797219E-02 1.36476443E-01 6.12797219E-02 1.16148691E-01
 8 14 6.36272256E-02-1.16148691E-01-6.36272256E-02 1.05143964E-01 5.98678523E-02
 8 15-1.05143964E-01-5.98678523E-02
 9  1-4.88115613E-06 1.90739011E-03-2.85154948E-02 2.05099952E-01 1.55716230E-01
 9  2-1.23785551E-02-1.22362592E-02 7.84718285E-02 5.79382621E-02 1.08024467E-04
 9  3 5.62275006E-03-1.03947094E-02 2.47290324E-03-2.35920852E-03-1.19588501E-03
 9  4-4.88115613E-06 1.90739011E-03 2.85154948E-02-2.05099952E-01 1.55716230E-01
 9  5-1.23785551E-02 1.22362592E-02-7.84718285E-02 5.79382621E-02 1.08024467E-04
 9  6 5.62275006E-03-1.03947094E-02 2.47290324E-03 2.35920852E-03 1.19588501E-03
 9  7 7.33724875E-03-1.75917579E-02-1.24376321E-01 1.78136498E-01 2.38856119E-02
 9  8-2.55689679E-02-6.21323286E-02 7.21717252E-02 1.58267301E-02-3.61228197E-03
 9  9-1.33472379E-03 2.94317465E-03 6.81948191E-03-6.68620012E-03 4.99604863E-04
 9 10 7.33724875E-03-1.75917579E-02 1.24376321E-01-1.78136498E-01 2.38856119E-02
 9 11-2.55689679E-02 6.21323286E-02-7.21717252E-02 1.58267301E-02-3.61228197E-03
 9 12-1.33472379E-03 2.94317465E-03 6.81948191E-03 6.68620012E-03-4.99604863E-04
 9 13-1.34568293E-01-9.69007054E-02-1.34568293E-01-9.69007054E-02 7.83620957E-02
 9 14 4.48639264E-02 7.83620957E-02 4.48639264E-02-1.25353583E-01-8.17280242E-02
 9 15-1.25353583E-01-8.17280242E-02
10  1 1.07355404E-02-2.19865061E-02-8.13674529E-03 1.92330743E-01-2.24056748E-01
10  2 1.19064663E-03-1.47860783E-03 7.58069338E-02-8.64320931E-02 1.11831003E-03
10  3 9.21097059E-03-6.10398006E-03-7.82724646E-05-1.20705744E-03 5.60748644E-03
10  4 1.07355404E-02-2.19865061E-02 8.13674529E-03-1.92330743E-01-2.24056748E-01
10  5 1.19064663E-03 1.47860783E-03-7.58069338E-02-8.64320931E-02 1.11831003E-03
10  6 9.21097059E-03-6.10398006E-03-7.82724646E-05 1.20705744E-03-5.60748644E-03
10  7 7.16839111E-04-7.40897318E-03-3.87699696E-02-5.77693769E-02 2.85273323E-01
10  8 3.66460952E-02-1.93027093E-02-1.49737687E-02 1.09281638E-01 7.70543150E-03
10  9 6.38651371E-03-6.07927935E-03-8.97501815E-03-6.72288897E-03 9.51569558E-03
10 10 7.16839111E-04-7.40897318E-03 3.87699696E-02 5.77693769E-02 2.85273323E-01
10 11 3.66460952E-02 1.93027093E-02 1.49737687E-02 1.09281638E-01 7.70543150E-03
10 12 6.38651371E-03-6.07927935E-03-8.97501815E-03 6.72288897E-03-9.51569558E-03
10 13 4.82615114E-02 2.24660941E-02 4.82615114E-02 2.24660941E-02 1.27882450E-01
10 14 8.96083946E-02 1.27882450E-01 8.96083946E-02 5.80795553E-02 5.12672950E-02
10 15 5.80795553E-02 5.12672950E-02
11  1-1.07803081E-02 2.60543054E-02-2.34756851E-02 1.29451487E-02 1.69343040E-01
11  2 2.74535862E-03 9.83395882E-03 2.36258462E-03 5.91616647E-02 9.84703899E-05
11  3-7.79416115E-03 2.19339392E-03 2.17291917E-03-4.77558837E-03-1.00892744E-02
11  4 1.07803081E-02-2.60543054E-02-2.34756851E-02 1.29451487E-02-1.69343040E-01
11  5-2.74535862E-03 9.83395882E-03 2.36258462E-03-5.91616647E-02-9.84703899E-05
11  6 7.79416115E-03-2.19339392E-03-2.17291917E-03-4.77558837E-03-1.00892744E-02
11  7-1.55837307E-02 3.32153670E-02-1.79764484E-01 2.38034097E-01-5.81395818E-02
11  8 3.65372435E-02-8.50693100E-02 1.25067140E-01-1.50844364E-02-4.33462268E-03
11  9-1.31926501E-02 1.30608702E-02 8.93345956E-03-1.05111059E-02 3.06222293E-03
11 10 1.55837307E-02-3.32153670E-02-1.79764484E-01 2.38034097E-01 5.81395818E-02
11 11-3.65372435E-02-8.50693100E-02 1.25067140E-01 1.50844364E-02 4.33462268E-03
11 12 1.31926501E-02-1.30608702E-02-8.93345956E-03-1.05111059E-02 3.06222293E-03
11 13-8.46989580E-02-7.01187456E-02 8.46989580E-02 7.01187456E-02 1.06466742E-01
11 14 7.87256341E-02-1.06466742E-01-7.87256341E-02-1.81838848E-01-1.48270964E-01
11 15 1.81838848E-01 1.48270964E-01
12  1 6.22940548E-03-6.94520719E-03-2.62021636E-03-5.50146534E-04 2.49329808E-01
12  2-4.20759050E-02-2.38263694E-02 2.29077599E-02 1.18163635E-01 8.01025425E-04
12  3 3.73923433E-04-8.83861410E-03-7.67455985E-04 4.34115269E-03-2.34192596E-02
12  4-6.22940548E-03 6.94520719E-03-2.62021636E-03-5.50146534E-04-2.49329808E-01
12  5 4.20759050E-02-2.38263694E-02 2.29077599E-02-1.18163635E-01-8.01025425E-04
12  6-3.73923433E-04 8.83861410E-03 7.67455985E-04 4.34115269E-03-2.34192596E-02
12  7-1.38151971E-02 2.87640381E-02 1.18873830E-01-2.97427820E-02-2.38321476E-01
12  8 8.34937960E-03 6.18777655E-02-4.17933020E-02-1.12749615E-01-5.63544921E-03
12  9 3.14311661E-03-3.36779007E-03 2.79065514E-03 1.15842724E-02-1.40288307E-02
12 10 1.38151971E-02-2.87640381E-02 1.18873830E-01-2.97427820E-02 2.38321476E-01
12 11-8.34937960E-03 6.18777655E-02-4.17933020E-02 1.12749615E-01 5.63544921E-03
12 12-3.14311661E-03 3.36779007E-03-2.79065514E-03 1.15842724E-02-1.40288307E-02
12 13-1.60169947E-01-1.28218014E-01 1.60169947E-01 1.28218014E-01-1.55012253E-01
12 14-1.26683742E-01 1.55012253E-01 1.26683742E-01 4.10688202E-02 2.74841483E-02
12 15-4.10688202E-02-2.74841483E-02
13  1-1.46120139E-02 3.06174567E-02 1.23535095E-02 2.72778161E-01 7.71882993E-02
13  2 3.78532465E-02-1.51678977E-02 1.45892651E-01 5.22326245E-02-4.29325176E-04
13  3 1.68647557E-02-2.00183165E-02-2.33762447E-03 4.57786137E-03-8.19641829E-03
13  4-1.46120139E-02 3.06174567E-02-1.23535095E-02-2.72778161E-01 7.71882993E-02
13  5 3.78532465E-02 1.51678977E-02-1.45892651E-01 5.22326245E-02-4.29325176E-04
13  6 1.68647557E-02-2.00183165E-02-2.33762447E-03-4.57786137E-03 8.19641829E-03
13  7 5.94979337E-04-2.97947181E-03 1.54450377E-01-1.46872405E-01-1.56690341E-02
13  8-2.00906125E-02 7.13211588E-02-1.12279400E-01-1.24457674E-02 1.45992948E-03
13  9 1.35835798E-02-1.28242122E-02-6.70401304E-03 9.84788774E-03-1.55000981E-02
13 10 5.94979337E-04-2.97947181E-03-1.54450377E-01 1.46872405E-01-1.56690341E-02
13 11-2.00906125E-02-7.13211588E-02 1.12279400E-01-1.24457674E-02 1.45992948E-03
13 12 1.35835798E-02-1.28242122E-02-6.70401304E-03-9.84788774E-03 1.55000981E-02
13 13-1.27334765E-01-1.16659868E-01-1.27334765E-01-1.16659868E-01-1.14716030E-01
13 14-9.54743856E-02-1.14716030E-01-9.54743856E-02 1.44322356E-01 1.22444111E-01
13 15 1.44322356E-01 1.22444111E-01
14  1-1.39339164E-03 1.93282981E-03 3.20031925E-01 2.70363145E-02 1.84532723E-02
14  2 2.75581467E-02 2.36240086E-01 2.80250930E-02 2.54954585E-03-4.63774846E-04
14  3-6.35869554E-03 6.24410271E-03 9.59122758E-03 8.96818949E-03 3.59689001E-03
14  4 1.39339164E-03-1.93282981E-03 3.20031925E-01 2.70363145E-02-1.84532723E-02
14  5-2.75581467E-02 2.36240086E-01 2.80250930E-02-2.54954585E-03 4.63774846E-04
14  6 6.35869554E-03-6.24410271E-03-9.59122758E-03 8.96818949E-03 3.59689001E-03
14  7-8.59546544E-03 1.77083797E-02 1.39892763E-01 1.46833748E-01 6.36624546E-02
14  8 4.18500611E-02 9.85687798E-02 1.09104937E-01 5.51843055E-02 9.92453955E-04
14  9-2.54906284E-03 1.47334302E-03 8.75228744E-03-1.76754998E-02-9.85164596E-05
14 10 8.59546544E-03-1.77083797E-02 1.39892763E-01 1.46833748E-01-6.36624546E-02
14 11-4.18500611E-02 9.85687798E-02 1.09104937E-01-5.51843055E-02-9.92453955E-04
14 12 2.54906284E-03-1.47334302E-03-8.75228744E-03-1.76754998E-02-9.85164596E-05
14 13 1.75999041E-03 1.50817635E-02-1.75999041E-03-1.50817635E-02 3.78243370E-02
14 14 4.73710042E-02-3.78243370E-02-4.73710042E-02-2.95437112E-02-6.50103676E-02
14 15 2.95437112E-02 6.50103676E-02
15  1 1.38448183E-02-2.94909880E-02 2.20085752E-01-3.36582516E-02 3.39483559E-03
15  2-9.25794686E-02 1.91127466E-01-3.01830262E-02-1.65650858E-02-7.21765040E-04
15  3-9.89358571E-03 1.17790793E-02-1.28946197E-02 1.19358200E-02 1.10883753E-02
15  4 1.38448183E-02-2.94909880E-02-2.20085752E-01 3.36582516E-02 3.39483559E-03
15  5-9.25794686E-02-1.91127466E-01 3.01830262E-02-1.65650858E-02-7.21765040E-04
15  6-9.89358571E-03 1.17790793E-02-1.28946197E-02-1.19358200E-02-1.10883753E-02
15  7 2.95877028E-03-1.03554138E-02 2.58176553E-01 1.96512475E-01 6.71864352E-02
15  8 8.57627931E-03 2.20590171E-01 1.98049719E-01 3.82175779E-02-1.27643350E-03
15  9 2.88916425E-03-2.19054141E-03 5.44620385E-03-1.17956952E-02 2.22755633E-03
15 10 2.95877028E-03-1.03554138E-02-2.58176553E-01-1.96512475E-01 6.71864352E-02
15 11 8.57627931E-03-2.20590171E-01-1.98049719E-01 3.82175779E-02-1.27643350E-03
15 12 2.88916425E-03-2.19054141E-03 5.44620385E-03 1.17956952E-02-2.22755633E-03
15 13 3.41328220E-02 7.63497209E-02 3.41328220E-02 7.63497209E-02 2.03095492E-03
15 14 4.01002110E-02 2.03095492E-03 4.01002110E-02-1.04584837E-02-2.39770192E-02
15 15-1.04584837E-02-2.39770192E-02
16  1-1.26757192E-02 2.58356996E-02-2.69705611E-01 2.08471104E-02-1.01478463E-02
16  2 3.90694025E-02-2.11521950E-01-1.64005174E-02-2.03209903E-02 4.18092021E-03
16  3-8.41085162E-03 2.90416612E-03-1.40635622E-02 9.78425638E-03 4.58036752E-03
16  4 1.26757192E-02-2.58356996E-02-2.69705611E-01 2.08471104E-02 1.01478463E-02
16  5-3.90694025E-02-2.11521950E-01-1.64005174E-02 2.03209903E-02-4.18092021E-03
16  6 8.41085162E-03-2.90416612E-03 1.40635622E-02 9.78425638E-03 4.58036752E-03
16  7-7.31351458E-03 1.25203276E-02 3.10237915E-01 2.70497274E-01 1.19586395E-01
16  8 2.86152253E-02 2.68846548E-01 1.99281817E-01 8.17349682E-02 1.15232089E-03
16  9-2.00691626E-03 6.35040065E-04-8.73925002E-04 1.10809168E-03 1.42516113E-04
16 10 7.31351458E-03-1.25203276E-02 3.10237915E-01 2.70497274E-01-1.19586395E-01
16 11-2.86152253E-02 2.68846548E-01 1.99281817E-01-8.17349682E-02-1.15232089E-03
16 12 2.00691626E-03-6.35040065E-04 8.73925002E-04 1.10809168E-03 1.42516113E-04
16 13 1.61246356E-02 5.50852483E-03-1.61246356E-02-5.50852483E-03 3.88114605E-04
16 14 1.71010953E-02-3.88114605E-04-1.71010953E-02 8.74716014E-03-4.20939390E-03
16 15-8.74716014E-03 4.20939390E-03
17  1-1.55864975E-03-5.59118677E-03 4.85547511E-01 3.95339938E-02 3.04170167E-02
17  2-3.13476158E-02 4.09525477E-01 7.08734420E-02 4.86380692E-02-5.85918282E-03
17  3 7.41029368E-05 6.01515154E-03-8.25860185E-03-7.25054673E-04 5.62351611E-03
17  4-1.55864975E-03-5.59118677E-03-4.85547511E-01-3.95339938E-02 3.04170167E-02
17  5-3.13476158E-02-4.09525477E-01-7.08734420E-02 4.86380692E-02-5.85918282E-03
17  6 7.41029368E-05 6.01515154E-03-8.25860185E-03 7.25054673E-04-5.62351611E-03
17  7-3.86516342E-04-1.07826390E-03-2.53820859E-01-1.77649513E-01-6.80887516E-02
17  8-1.02240484E-02-2.14986387E-01-1.03321650E-01-3.40257776E-02-2.14813803E-03
17  9 1.07171185E-03 1.67370691E-03 3.23373680E-04-1.33056238E-02-3.74472730E-03
17 10-3.86516342E-04-1.07826390E-03 2.53820859E-01 1.77649513E-01-6.80887516E-02
17 11-1.02240484E-02 2.14986387E-01 1.03321650E-01-3.40257776E-02-2.14813803E-03
17 12 1.07171185E-03 1.67370691E-03 3.23373680E-04 1.33056238E-02 3.74472730E-03
17 13-1.77113055E-03 4.59227107E-02-1.77113055E-03 4.59227107E-02 3.58642436E-02
17 14 2.26068939E-02 3.58642436E-02 2.26068939E-02-2.60690515E-02-1.68305729E-02
17 15-2.60690515E-02-1.68305729E-02
 $END   
--- NATURAL ORBITALS OF MCSCF --- GENERATED AT Mon Apr 04 18:25:59 2016
cis-Butadiene,initial geometry                                                  
E(MCSCF)=     -154.8812681093, E(NUC)=      107.8227361083
 $VEC1
 1  1 7.01420460E-01 1.96152413E-02 4.92238811E-05 1.41833260E-04 1.70456583E-04
 1  2-6.20310865E-03 5.44846258E-05 5.04717334E-04-5.82749580E-04-1.80607730E-03
 1  3-1.75395597E-03-1.30679341E-03-1.03001416E-05 7.09377151E-06-7.80411791E-05
 1  4 7.01420460E-01 1.96152413E-02-4.92238811E-05-1.41833260E-04 1.70456583E-04
 1  5-6.20310865E-03-5.44846258E-05-5.04717334E-04-5.82749580E-04-1.80607730E-03
 1  6-1.75395597E-03-1.30679341E-03-1.03001416E-05-7.09377151E-06 7.80411791E-05
 1  7 5.82770398E-02 1.43482889E-03 2.61841891E-05 8.38000688E-05 3.03233661E-04
 1  8 1.71374180E-03-3.19977712E-05 6.15926576E-04-1.14129585E-03-1.64949332E-04
 1  9-2.22856274E-04-2.67115955E-04 5.53339567E-06-1.26196514E-05-4.31815889E-06
 1 10 5.82770398E-02 1.43482889E-03-2.61841891E-05-8.38000688E-05 3.03233661E-04
 1 11 1.71374180E-03 3.19977712E-05-6.15926576E-04-1.14129585E-03-1.64949332E-04
 1 12-2.22856274E-04-2.67115955E-04 5.53339567E-06 1.26196514E-05 4.31815889E-06
 1 13-2.56930595E-04 1.20216863E-03-2.56930595E-04 1.20216863E-03-2.78570287E-06
 1 14 3.93171583E-04-2.78570287E-06 3.93171583E-04-1.00148348E-04 3.21761341E-04
 1 15-1.00148348E-04 3.21761341E-04
 2  1 7.01233394E-01 1.95464077E-02 8.85465981E-05 1.51524774E-04 2.08557177E-04
 2  2-1.28638003E-02 1.02326593E-04-2.02424494E-03-1.93155371E-03-1.58528749E-03
 2  3-9.93896086E-04-9.48262336E-04-6.96948819E-06 1.13455186E-05-1.21287619E-04
 2  4-7.01233394E-01-1.95464077E-02 8.85465981E-05 1.51524774E-04-2.08557177E-04
 2  5 1.28638003E-02 1.02326593E-04-2.02424494E-03 1.93155371E-03 1.58528749E-03
 2  6 9.93896086E-04 9.48262336E-04 6.96948819E-06 1.13455186E-05-1.21287619E-04
 2  7 6.44497437E-02 1.61948889E-03-2.63921359E-05-8.05258345E-06 2.45483861E-04
 2  8 3.20054458E-03-1.10991049E-04 1.13074473E-03-1.36402598E-03-1.65067942E-04
 2  9-3.99410418E-04-4.24113019E-04 4.04757039E-06-2.44221089E-05 4.53968029E-05
 2 10-6.44497437E-02-1.61948889E-03-2.63921359E-05-8.05258345E-06-2.45483861E-04
 2 11-3.20054458E-03-1.10991049E-04 1.13074473E-03 1.36402598E-03 1.65067942E-04
 2 12 3.99410418E-04 4.24113019E-04-4.04757039E-06-2.44221089E-05 4.53968029E-05
 2 13-2.00309768E-04 9.50151055E-04 2.00309768E-04-9.50151055E-04-7.02696912E-05
 2 14 1.87306285E-04 7.02696912E-05-1.87306285E-04-1.55670389E-04 2.80184715E-04
 2 15 1.55670389E-04-2.80184715E-04
 3  1-6.48782386E-02-1.75398187E-03-6.29301675E-05 3.59255670E-06-1.60266283E-04
 3  2 4.67436266E-03-6.85217836E-05-7.95230694E-04 1.60493570E-03 1.00048347E-04
 3  3-2.12718429E-04-1.36306800E-04 5.30894685E-05 1.21639783E-05 8.29329733E-06
 3  4 6.48782386E-02 1.75398187E-03-6.29301675E-05 3.59255670E-06 1.60266283E-04
 3  5-4.67436266E-03-6.85217836E-05-7.95230694E-04-1.60493570E-03-1.00048347E-04
 3  6 2.12718429E-04 1.36306800E-04-5.30894685E-05 1.21639783E-05 8.29329733E-06
 3  7 7.01018421E-01 1.99544651E-02-9.47854827E-06 2.32693689E-04-1.93229185E-04
 3  8-9.36511149E-03 5.58329417E-05-1.26420375E-03 1.27917427E-03-1.52858216E-03
 3  9-1.61618723E-03-1.25321779E-03-1.77841661E-04-4.81382291E-05-2.06361582E-04
 3 10-7.01018421E-01-1.99544651E-02-9.47854827E-06 2.32693689E-04 1.93229185E-04
 3 11 9.36511149E-03 5.58329417E-05-1.26420375E-03-1.27917427E-03 1.52858216E-03
 3 12 1.61618723E-03 1.25321779E-03 1.77841661E-04-4.81382291E-05-2.06361582E-04
 3 13 1.13107937E-05-2.08668033E-04-1.13107937E-05 2.08668033E-04 1.40365328E-04
 3 14 1.00362293E-03-1.40365328E-04-1.00362293E-03-1.35544765E-04 1.09301316E-03
 3 15 1.35544765E-04-1.09301316E-03
 4  1-5.86667767E-02-1.90198627E-03 2.37350836E-05-5.39170328E-06-2.80890216E-04
 4  2 2.60076873E-03-8.45296295E-05-4.47904409E-04 8.08211643E-04 9.45170864E-05
 4  3 6.42801058E-05-1.03207388E-04 4.76968003E-05 1.78618933E-05 1.08434669E-04
 4  4-5.86667767E-02-1.90198627E-03-2.37350836E-05 5.39170328E-06-2.80890216E-04
 4  5 2.60076873E-03 8.45296295E-05 4.47904409E-04 8.08211643E-04 9.45170864E-05
 4  6 6.42801058E-05-1.03207388E-04 4.76968003E-05-1.78618933E-05-1.08434669E-04
 4  7 7.01600098E-01 1.95520171E-02 1.62212229E-04 1.84788675E-05-1.49092646E-04
 4  8-8.34215492E-03-1.35801054E-04-9.60808197E-05 1.91762203E-05-1.65840638E-03
 4  9-1.46239365E-03-1.21975617E-03-1.69163347E-04-7.00539654E-05-2.09933655E-04
 4 10 7.01600098E-01 1.95520171E-02-1.62212229E-04-1.84788675E-05-1.49092646E-04
 4 11-8.34215492E-03 1.35801054E-04 9.60808197E-05 1.91762203E-05-1.65840638E-03
 4 12-1.46239365E-03-1.21975617E-03-1.69163347E-04 7.00539654E-05 2.09933655E-04
 4 13-7.42851870E-06-3.67370986E-05-7.42851870E-06-3.67370986E-05-2.09345870E-04
 4 14 1.84524305E-03-2.09345870E-04 1.84524305E-03-1.82556302E-05 1.73758414E-03
 4 15-1.82556302E-05 1.73758414E-03
 5  1-1.28465979E-01 2.43333229E-01 5.36588190E-05 3.19649486E-02 5.03737974E-02
 5  2 1.66123402E-01 2.37846937E-03 1.02311279E-03-4.37169109E-03-1.09521417E-02
 5  3 9.77201421E-03 1.06329265E-02 2.72664767E-04 2.71077236E-04-4.32236964E-04
 5  4-1.28465979E-01 2.43333229E-01-5.36588190E-05-3.19649486E-02 5.03737974E-02
 5  5 1.66123402E-01-2.37846937E-03-1.02311279E-03-4.37169109E-03-1.09521417E-02
 5  6 9.77201421E-03 1.06329265E-02 2.72664767E-04-2.71077236E-04 4.32236964E-04
 5  7-9.22731387E-02 1.71542081E-01-4.07340621E-03 4.29934396E-02-6.47177932E-02
 5  8 1.33599183E-01-3.77381928E-03 1.09637766E-02-1.39235255E-03-3.38105017E-03
 5  9 1.21067598E-04 8.87526234E-03-4.58263417E-03-3.01197819E-03-6.28369324E-03
 5 10-9.22731387E-02 1.71542081E-01 4.07340621E-03-4.29934396E-02-6.47177932E-02
 5 11 1.33599183E-01 3.77381928E-03-1.09637766E-02-1.39235255E-03-3.38105017E-03
 5 12 1.21067598E-04 8.87526234E-03-4.58263417E-03 3.01197819E-03 6.28369324E-03
 5 13 6.40446834E-02 1.30410419E-02 6.40446834E-02 1.30410419E-02 4.88510928E-02
 5 14 4.19735805E-03 4.88510928E-02 4.19735805E-03 3.84148970E-02 4.60611097E-03
 5 15 3.84148970E-02 4.60611097E-03
 6  1 9.09353863E-02-1.77916153E-01-5.79842670E-03 9.88295820E-02-7.64927628E-02
 6  2-1.33961089E-01-5.59125860E-03 2.13739463E-02 1.31082349E-02 6.38655563E-03
 6  3 7.97562252E-03-1.55727175E-02-9.26989264E-04-2.14446084E-04 5.27951491E-03
 6  4-9.09353863E-02 1.77916153E-01-5.79842670E-03 9.88295820E-02 7.64927628E-02
 6  5 1.33961089E-01-5.59125860E-03 2.13739463E-02-1.31082349E-02-6.38655563E-03
 6  6-7.97562252E-03 1.55727175E-02 9.26989264E-04-2.14446084E-04 5.27951491E-03
 6  7 1.26426209E-01-2.40862557E-01 2.76978102E-04-1.69850238E-02 6.56303921E-02
 6  8-2.13957933E-01 1.54378484E-03-6.01992965E-03 7.20135011E-03 9.93988532E-04
 6  9 1.61994792E-03-1.23175413E-02 8.75831982E-03 4.22163884E-03 5.79159778E-03
 6 10-1.26426209E-01 2.40862557E-01 2.76978102E-04-1.69850238E-02-6.56303921E-02
 6 11 2.13957933E-01 1.54378484E-03-6.01992965E-03-7.20135011E-03-9.93988532E-04
 6 12-1.61994792E-03 1.23175413E-02-8.75831982E-03 4.22163884E-03 5.79159778E-03
 6 13-5.79060544E-02-1.07795251E-02 5.79060544E-02 1.07795251E-02-7.13839530E-02
 6 14-2.05716980E-02 7.13839530E-02 2.05716980E-02-7.44695813E-02-1.68898983E-02
 6 15 7.44695813E-02 1.68898983E-02
 7  1 7.56263938E-02-1.47435432E-01-2.69158322E-03-1.32943794E-01 1.28731660E-01
 7  2-1.44139568E-01-4.96111114E-03-3.73015194E-02 3.96439967E-02 5.71166858E-03
 7  3-1.41002973E-02 1.81974878E-04 8.06907180E-04 1.43487374E-04-6.95247037E-03
 7  4 7.56263938E-02-1.47435432E-01 2.69158322E-03 1.32943794E-01 1.28731660E-01
 7  5-1.44139568E-01 4.96111114E-03 3.73015194E-02 3.96439967E-02 5.71166858E-03
 7  6-1.41002973E-02 1.81974878E-04 8.06907180E-04-1.43487374E-04 6.95247037E-03
 7  7-1.01342545E-01 1.92141646E-01-5.29802022E-04-3.76866170E-02 5.79392350E-02
 7  8 1.98775404E-01-1.03855321E-03-1.36745446E-02 2.49052378E-02 2.26370158E-03
 7  9 3.50180548E-03 3.65999594E-03-1.22950616E-02-4.93194924E-03 2.02366800E-03
 7 10-1.01342545E-01 1.92141646E-01 5.29802022E-04 3.76866170E-02 5.79392350E-02
 7 11 1.98775404E-01 1.03855321E-03 1.36745446E-02 2.49052378E-02 2.26370158E-03
 7 12 3.50180548E-03 3.65999594E-03-1.22950616E-02 4.93194924E-03-2.02366800E-03
 7 13-8.40527581E-02-3.10438958E-02-8.40527581E-02-3.10438958E-02 9.74305995E-02
 7 14 3.59214483E-02 9.74305995E-02 3.59214483E-02 1.01051963E-01 4.19912714E-02
 7 15 1.01051963E-01 4.19912714E-02
 8  1 8.71492965E-02-1.74418297E-01-1.66736421E-02 1.01106515E-01 6.36351509E-02
 8  2-1.59063999E-01-1.28605487E-02 4.35655517E-02 6.98568213E-02 5.50850880E-03
 8  3 5.39667543E-03-1.45358115E-02-1.80704184E-04-2.40724628E-04-8.46803356E-03