! Задание поиска реакционного пути
 $CONTRL RUNTYP=irc $END                                                                                            
! Параметры поиска реакционного пути, по умолчанию вычисляется 1-а точка npoint=1
 $IRC    PACE=GS2 
! Важно: тот факт, что геометрия в файле отвечает седловой точке(градиент равен нулю!)
SADDLE=.TRUE. 
! Вперед из седловой точки(или назад FORWRD=.false. )
 FORWRD=.true. 
! Важно: Число поисков(по умолчанию только один шаг NPOINT=1)
 NPOINT=20 $END
! Задание величины шага - расстояние между соседними точками реакционного пути
 $IRC    stride= $END
! + обязательно: Гессиан для  седловой точки - начальной точки реакционного пути
 $HESS $END