 $CONTRL SCFTYP=RHF 
 RUNTYP=vscf 
! RUNTYP=optimize
 mplevl=0
 $END

! $mp2 mp2prp=.t. $end
 $SYSTEM TIMLIM=500 MEMORY=3000000 $END
 $DATA
 CO2  vibscf simulation 
 Dnh 2

!—юда вставить равновесную геометрию
 C           6.0   
 O           8.0   
 $END
 $GUESS  GUESS=HUCKEL $END
 $CONTRL ICUT=20 ITOL=30 INTTYP=HONDO $END
 $statpt hssend=.t. $end
 $force nvib=2 $end
 $basis gbasis=n31 ngauss=6 ndfunc=1 $end
 $SCF    NCONV=6 FDIFF=.FALSE. $END

 $HESS 
!—юда вставить гессиан
.... $END
