 $CONTRL runtyp=irc UNITS=ANGS $END
 $basis gbasis=sto ngauss=3 $end
! $statpt nstep=100 hssend=.t.  ifolow=1 hess=calc
! ihrep=3 $end
 $IRC    PACE=GS2 SADDLE=.true. FORWRD=.FALSE. NPOINT=37 $END
 $IRC    stride=0.3 $END

 $DATA
 c4h6 IRC, forward
 c1
 C           6.0   0.2784387580  -1.3858492389  -0.2944237627
 C           6.0   0.1877142332  -0.2985409841   0.4297370771
 C           6.0  -1.0029076938   0.6281438574   0.4302365172
 C           6.0  -1.0963458364   1.7127452436  -0.2976291862
 H           1.0   1.1506432384  -2.0243299193  -0.2591914196
 H           1.0  -0.5101295716  -1.7010552632  -0.9643934825
 H           1.0   1.0028130265  -0.0206837250   1.0921589349
 H           1.0  -1.8155200558   0.3527664894   1.0967358167
 H           1.0  -1.9684151747   2.3513610680  -0.2615152485
 H           1.0  -0.3102909237   2.0254424721  -0.9717152464
 $end
 $HESS
ENERGY IS     -153.0114152329 E(NUC) IS      104.2771020044
 1  1 7.72564088E-01-1.83460289E-01 2.14381584E-01-1.50305153E-01 5.75238150E-02
 1  2-5.99634692E-04 2.96672820E-03 3.57383845E-02 1.83746968E-02-3.56031299E-03
 1  3-6.13608643E-04 1.88723904E-03-3.38510633E-01 1.90965646E-01-2.56398645E-02
 1  4-2.92720745E-01-7.20714754E-02-1.86125676E-01 1.06238631E-02-2.87699771E-02
 1  5-2.02116449E-02-9.56802825E-04 8.38533133E-04-9.25427259E-04-5.14309942E-04
 1  6-9.12545315E-04-2.59917768E-03 4.13323702E-04 7.61499591E-04 1.45787190E-03
 2  1-1.83460289E-01 9.34950867E-01 4.51304800E-01 4.91122368E-02-6.03317448E-01
 2  2-3.50487071E-01 8.39859046E-03-2.12940487E-02-1.47896003E-02-6.23883724E-04
 2  3 2.82985113E-03-8.77807082E-04 1.94454224E-01-2.06255017E-01-1.57269446E-03
 2  4-7.50820332E-02-1.05821036E-01-7.99923030E-02 8.76365847E-03-2.03213862E-03
 2  5-4.04868969E-03-1.82154980E-03 1.54251185E-04 8.22229913E-05 4.67512516E-04
 2  6 1.02947514E-03 1.05693694E-03-2.08427961E-04-2.44800339E-04-6.75799799E-04
 3  1 2.14381584E-01 4.51304800E-01 6.02697061E-01-7.17851408E-03-3.45946510E-01
 3  2-3.25521855E-01 1.74300551E-03-1.61836781E-03 9.30470937E-03-1.87137918E-03
 3  3 8.69809746E-04 6.24580725E-05-2.29946948E-02-3.46873265E-03-6.65976036E-02
 3  4-1.88413670E-01-7.79942823E-02-2.15609357E-01 6.38168151E-03-2.50572696E-02
 3  5-4.05892247E-03-1.92037693E-03 1.87429945E-03 3.10256574E-04-2.88884652E-04
 3  6-1.06085230E-04-7.99494509E-04 1.61251557E-04 1.42301507E-04 2.12786955E-04
 4  1-1.50305153E-01 4.91122368E-02-7.17851408E-03 6.91317848E-01-1.23234719E-01
 4  2 1.83241917E-01-2.59348830E-01 1.05227962E-01 1.25241533E-03 2.89123812E-03
 4  3 8.44757346E-03-1.75056031E-03 6.90286260E-03 2.98055800E-02 2.09009352E-02
 4  4 1.25343144E-02-2.71263730E-02-1.73803387E-02-2.91280421E-01-6.34595394E-02
 4  5-1.78768791E-01-1.54117671E-02 2.16941391E-02-3.15188620E-03 3.28205615E-03
 4  6 3.13738195E-03 7.14583125E-03-5.82108680E-04-3.60423402E-03-4.31101851E-03
 5  1 5.75238150E-02-6.03317448E-01-3.45946510E-01-1.23234719E-01 9.09379021E-01
 5  2 4.30590448E-01 1.05217490E-01-1.83898877E-01-1.65225059E-03 3.56757603E-02
 5  3-2.12328914E-02 1.59884131E-03-6.35054159E-03-1.13567594E-02-1.67799479E-02
 5  4 7.16081388E-03-1.79286910E-03-3.36628348E-03-7.32324412E-02-9.46120325E-02
 5  5-6.96234882E-02-3.64645623E-03 6.36526331E-03 1.40512666E-03 4.21027774E-03
 5  6 2.02026827E-03 9.42697979E-03-3.32404661E-03-1.55350560E-03-5.65291108E-03
 6  1-5.99634692E-04-3.50487071E-01-3.25521855E-01 1.83241917E-01 4.30590448E-01
 6  2 6.16179874E-01-1.07217935E-03 1.54794700E-03-1.06302460E-01-1.84839425E-02
 6  3 1.48721297E-02 9.31890316E-03-5.24711542E-03 2.62900696E-03 7.70407332E-03
 6  4 7.36045700E-03-2.26971901E-02-3.81008477E-03-1.85850264E-01-6.44644738E-02
 6  5-2.06683419E-01 1.91532706E-02-1.56415231E-02 6.84605769E-03 5.62966540E-03
 6  6 9.19103413E-03 7.85707762E-03-4.13217607E-03-5.54039482E-03-5.58805902E-03
 7  1 2.96672820E-03 8.39859046E-03 1.74300551E-03-2.59348830E-01 1.05217490E-01
 7  2-1.07217935E-03 6.89947401E-01-1.25529091E-01-1.83049579E-01-1.50279072E-01
 7  3 5.04492484E-02 6.33320645E-03 3.23426621E-03 3.07639614E-03-7.13998756E-03
 7  4-5.50532482E-04-3.56743782E-03 4.30546598E-03-1.54715021E-02 2.17642963E-02
 7  5 3.15423917E-03-2.89914296E-01-6.25505668E-02 1.79314847E-01 6.84421337E-03
 7  6 2.97175207E-02-2.10087429E-02 1.25716644E-02-2.69764386E-02 1.74197343E-02
 8  1 3.57383845E-02-2.12940487E-02-1.61836781E-03 1.05227962E-01-1.83898877E-01
 8  2 1.54794700E-03-1.25529091E-01 9.06164788E-01-4.31203542E-01 5.88191085E-02
 8  3-6.00717353E-01 3.46754762E-01 4.15401981E-03 1.95090119E-03-9.42050289E-03
 8  4-3.28750106E-03-1.51176492E-03 5.65001703E-03-3.72294127E-03 6.41822224E-03
 8  5-1.38962369E-03-7.22776548E-02-9.41122261E-02 6.94732301E-02-6.26802441E-03
 8  6-1.13039295E-02 1.68745615E-02 7.14569093E-03-1.69554160E-03 3.33151409E-03
 9  1 1.83746968E-02-1.47896003E-02 9.30470937E-03 1.25241533E-03-1.65225059E-03
 9  2-1.06302460E-01-1.83049579E-01-4.31203542E-01 6.20764678E-01-2.76926760E-04
 9  3 3.51326817E-01-3.28147806E-01-5.62781483E-03-9.18057049E-03 7.97426013E-03
 9  4 4.12555093E-03 5.53857005E-03-5.66136000E-03-1.90561360E-02 1.55618952E-02
 9  5 6.85276997E-03 1.86432569E-01 6.42776068E-02-2.08549831E-01 5.27375455E-03
 9  6-2.66935962E-03 7.70994103E-03-7.44852774E-03 2.27905216E-02-3.94479394E-03
10  1-3.56031299E-03-6.23883724E-04-1.87137918E-03 2.89123812E-03 3.56757603E-02
10  2-1.84839425E-02-1.50279072E-01 5.88191085E-02-2.76926760E-04 7.70959815E-01
10  3-1.85949043E-01-2.14317347E-01-5.03505147E-04-9.02463478E-04 2.60146211E-03
10  4 4.07255426E-04 7.55521557E-04-1.46143105E-03-9.46122092E-04 8.34965251E-04
10  5 9.27021737E-04 1.06755119E-02-2.86005969E-02 2.02632583E-02-3.38326737E-01
10  6 1.91074895E-01 2.59440849E-02-2.91318025E-01-7.10842805E-02 1.86675233E-01
11  1-6.13608643E-04 2.82985113E-03 8.69809746E-04 8.44757346E-03-2.12328914E-02
11  2 1.48721297E-02 5.04492484E-02-6.00717353E-01 3.51326817E-01-1.85949043E-01
11  3 9.31583538E-01-4.51836425E-01 4.64613468E-04 1.02591164E-03-1.06551453E-03
11  4-2.06495269E-04-2.42808348E-04 6.78290022E-04-1.81467467E-03 1.46973741E-04
11  5-7.48391587E-05 8.75473649E-03-1.92342558E-03 4.00772664E-03 1.94546502E-01
11  6-2.06238012E-01 1.36539426E-03-7.40788123E-02-1.05231829E-01 7.98566174E-02
12  1 1.88723904E-03-8.77807082E-04 6.24580725E-05-1.75056031E-03 1.59884131E-03
12  2 9.31890316E-03 6.33320645E-03 3.46754762E-01-3.28147806E-01-2.14317347E-01
12  3-4.51836425E-01 6.07668888E-01 2.86044172E-04 1.02656844E-04-8.06731280E-04
12  4-1.61208639E-04-1.43427844E-04 2.16859596E-04 1.93188248E-03-1.87684011E-03
12  5 3.06880158E-04-6.46961099E-03 2.51565739E-02-4.21920652E-03 2.32859444E-02
12  6 3.27442069E-03-6.67987207E-02 1.88974406E-01 7.78472817E-02-2.17601484E-01
13  1-3.38510633E-01 1.94454224E-01-2.29946948E-02 6.90286260E-03-6.35054159E-03
13  2-5.24711542E-03 3.23426621E-03 4.15401981E-03-5.62781483E-03-5.03505147E-04
13  3 4.64613468E-04 2.86044172E-04 3.38040406E-01-2.06455302E-01 2.36540974E-02
13  4-9.82906312E-03 1.80063187E-02 5.25825987E-03-4.17690686E-04-2.98922341E-03
13  5 4.61776358E-03 1.19427339E-03-1.24692354E-03 1.99053680E-04-9.40271226E-05
13  6-6.69276074E-06-8.29388745E-05-1.69384455E-05-3.04823159E-05-6.26028726E-05
14  1 1.90965646E-01-2.06255017E-01-3.46873265E-03 2.98055800E-02-1.13567594E-02
14  2 2.62900696E-03 3.07639614E-03 1.95090119E-03-9.18057049E-03-9.02463478E-04
14  3 1.02591164E-03 1.02656844E-04-2.06455302E-01 2.06442141E-01 6.76560229E-03
14  4-1.40338335E-02 1.07461077E-02-2.88401837E-03-3.34680469E-03-1.72399746E-03
14  5 5.75045729E-03 9.93634294E-04-9.92427569E-04 3.19950815E-04-5.65149176E-06
14  6 3.52819858E-04 1.94722518E-04-9.72155999E-05-1.89690267E-04-2.29033195E-04
15  1-2.56398645E-02-1.57269446E-03-6.65976036E-02 2.09009352E-02-1.67799479E-02
15  2 7.70407332E-03-7.13998756E-03-9.42050289E-03 7.97426013E-03 2.60146211E-03
15  3-1.06551453E-03-8.06731280E-04 2.36540974E-02 6.76560229E-03 5.24222787E-02
15  4-1.77347878E-02 1.51439181E-02 4.62185126E-03 4.38688087E-03 5.97047662E-03
15  5-5.66371254E-03-1.16741516E-03 1.15853276E-03-1.91999290E-04 8.59290791E-05
15  6-1.93409039E-04 6.99400201E-04 5.27378751E-05-6.42991138E-06-1.61915344E-04
16  1-2.92720745E-01-7.50820332E-02-1.88413670E-01 1.25343144E-02 7.16081388E-03
16  2 7.36045700E-03-5.50532482E-04-3.28750106E-03 4.12555093E-03 4.07255426E-04
16  3-2.06495269E-04-1.61208639E-04-9.82906312E-03-1.40338335E-02-1.77347878E-02
16  4 2.88186556E-01 7.95567037E-02 1.99868862E-01 2.72566011E-03 5.32968015E-03
16  5-4.94099194E-03-7.42723576E-04 6.36192346E-04-1.47844243E-04-1.69032832E-05
16  6-9.65540891E-05-5.29203952E-05 6.17853052E-06 2.30464552E-05 9.65512839E-05
17  1-7.20714754E-02-1.05821036E-01-7.79942823E-02-2.71263730E-02-1.79286910E-03
17  2-2.26971901E-02-3.56743782E-03-1.51176492E-03 5.53857005E-03 7.55521557E-04
17  3-2.42808348E-04-1.43427844E-04 1.80063187E-02 1.07461077E-02 1.51439181E-02
17  4 7.95567037E-02 9.72411566E-02 8.97751953E-02 5.20936568E-03 9.10730599E-04
17  5-9.41731037E-03-7.55248313E-04 6.36552310E-04-2.63008204E-04-3.02269415E-05
17  6-1.88812254E-04 6.64206557E-06 2.28780413E-05 2.27539095E-05 5.09084950E-05
18  1-1.86125676E-01-7.99923030E-02-2.15609357E-01-1.73803387E-02-3.36628348E-03
18  2-3.81008477E-03 4.30546598E-03 5.65001703E-03-5.66136000E-03-1.46143105E-03
18  3 6.78290022E-04 2.16859596E-04 5.25825987E-03-2.88401837E-03 4.62185126E-03
18  4 1.99868862E-01 8.97751953E-02 2.11403626E-01-5.04187533E-03-9.36367930E-03
18  5 8.67297853E-03 6.10838184E-04-6.76105719E-04 2.17227253E-04 6.21730949E-05
18  6 2.29497021E-04-1.62830099E-04-9.62454728E-05-5.06645257E-05 1.11060487E-04
19  1 1.06238631E-02 8.76365847E-03 6.38168151E-03-2.91280421E-01-7.32324412E-02
19  2-1.85850264E-01-1.54715021E-02-3.72294127E-03-1.90561360E-02-9.46122092E-04
19  3-1.81467467E-03 1.93188248E-03-4.17690686E-04-3.34680469E-03 4.38688087E-03
19  4 2.72566011E-03 5.20936568E-03-5.04187533E-03 2.94560329E-01 6.71815047E-02
19  5 1.95986607E-01-2.47586375E-04 7.22069914E-04 7.07145147E-04 1.19788367E-03
19  6 9.96768319E-04 1.15851681E-03-7.44446832E-04-7.56525460E-04-6.04430510E-04
20  1-2.87699771E-02-2.03213862E-03-2.50572696E-02-6.34595394E-02-9.46120325E-02
20  2-6.44644738E-02 2.17642963E-02 6.41822224E-03 1.55618952E-02 8.34965251E-04
20  3 1.46973741E-04-1.87684011E-03-2.98922341E-03-1.72399746E-03 5.97047662E-03
20  4 5.32968015E-03 9.10730599E-04-9.36367930E-03 6.71815047E-02 9.20321651E-02
20  5 7.92865667E-02 7.21007781E-04-7.82178048E-04 4.22026318E-04-1.25198867E-03
20  6-9.97916153E-04-1.15085760E-03 6.39271141E-04 6.40046197E-04 6.72144795E-04
21  1-2.02116449E-02-4.04868969E-03-4.05892247E-03-1.78768791E-01-6.96234882E-02
21  2-2.06683419E-01 3.15423917E-03-1.38962369E-03 6.85276997E-03 9.27021737E-04
21  3-7.48391587E-05 3.06880158E-04 4.61776358E-03 5.75045729E-03-5.66371254E-03
21  4-4.94099194E-03-9.41731037E-03 8.67297853E-03 1.95986607E-01 7.92865667E-02
21  5 2.01823501E-01-7.13685499E-04-4.26565059E-04-1.27543856E-03-1.99584270E-04
21  6-3.20674700E-04-1.90105167E-04 1.49058120E-04 2.64265995E-04 2.15448544E-04
22  1-9.56802825E-04-1.82154980E-03-1.92037693E-03-1.54117671E-02-3.64645623E-03
22  2 1.91532706E-02-2.89914296E-01-7.22776548E-02 1.86432569E-01 1.06755119E-02
22  3 8.75473649E-03-6.46961099E-03 1.19427339E-03 9.93634294E-04-1.16741516E-03
22  4-7.42723576E-04-7.55248313E-04 6.10838184E-04-2.47586375E-04 7.21007781E-04
22  5-7.13685499E-04 2.93091742E-01 6.61527926E-02-1.96576190E-01-4.51430006E-04
22  6-3.38470899E-03-4.39376322E-03 2.76304458E-03 5.26342632E-03 5.04435710E-03
23  1 8.38533133E-04 1.54251185E-04 1.87429945E-03 2.16941391E-02 6.36526331E-03
23  2-1.56415231E-02-6.25505668E-02-9.41122261E-02 6.42776068E-02-2.86005969E-02
23  3-1.92342558E-03 2.51565739E-02-1.24692354E-03-9.92427569E-04 1.15853276E-03
23  4 6.36192346E-04 6.36552310E-04-6.76105719E-04 7.22069914E-04-7.82178048E-04
23  5-4.26565059E-04 6.61527926E-02 9.14409912E-02-7.91213690E-02-3.02880325E-03
23  6-1.76769718E-03-5.97368503E-03 5.38316021E-03 9.80770958E-04 9.37224616E-03
24  1-9.25427259E-04 8.22229913E-05 3.10256574E-04-3.15188620E-03 1.40512666E-03
24  2 6.84605769E-03 1.79314847E-01 6.94732301E-02-2.08549831E-01 2.02632583E-02
24  3 4.00772664E-03-4.21920652E-03 1.99053680E-04 3.19950815E-04-1.91999290E-04
24  4-1.47844243E-04-2.63008204E-04 2.17227253E-04 7.07145147E-04 4.22026318E-04
24  5-1.27543856E-03-1.96576190E-01-7.91213690E-02 2.03883630E-01-4.62596709E-03
24  6-5.75231416E-03-5.58626166E-03 4.94301916E-03 9.42630905E-03 8.56554636E-03
25  1-5.14309942E-04 4.67512516E-04-2.88884652E-04 3.28205615E-03 4.21027774E-03
25  2 5.62966540E-03 6.84421337E-03-6.26802441E-03 5.27375455E-03-3.38326737E-01
25  3 1.94546502E-01 2.32859444E-02-9.40271226E-05-5.65149176E-06 8.59290791E-05
25  4-1.69032832E-05-3.02269415E-05 6.21730949E-05 1.19788367E-03-1.25198867E-03
25  5-1.99584270E-04-4.51430006E-04-3.02880325E-03-4.62596709E-03 3.37861404E-01
25  6-2.06569495E-01-2.39517900E-02-9.78219822E-03 1.79299087E-02-5.27129249E-03
26  1-9.12545315E-04 1.02947514E-03-1.06085230E-04 3.13738195E-03 2.02026827E-03
26  2 9.19103413E-03 2.97175207E-02-1.13039295E-02-2.66935962E-03 1.91074895E-01
26  3-2.06238012E-01 3.27442069E-03-6.69276074E-06 3.52819858E-04-1.93409039E-04
26  4-9.65540891E-05-1.88812254E-04 2.29497021E-04 9.96768319E-04-9.97916153E-04
26  5-3.20674700E-04-3.38470899E-03-1.76769718E-03-5.75231416E-03-2.06569495E-01
26  6 2.06393529E-01-6.56678032E-03-1.39565841E-02 1.07002648E-02 2.91362910E-03
27  1-2.59917768E-03 1.05693694E-03-7.99494509E-04 7.14583125E-03 9.42697979E-03
27  2 7.85707762E-03-2.10087429E-02 1.68745615E-02 7.70994103E-03 2.59440849E-02
27  3 1.36539426E-03-6.67987207E-02-8.29388745E-05 1.94722518E-04 6.99400201E-04
27  4-5.29203952E-05 6.64206557E-06-1.62830099E-04 1.15851681E-03-1.15085760E-03
27  5-1.90105167E-04-4.39376322E-03-5.97368503E-03-5.58626166E-03-2.39517900E-02
27  6-6.56678032E-03 5.26500565E-02 1.78409130E-02-1.52339453E-02 4.62083868E-03
28  1 4.13323702E-04-2.08427961E-04 1.61251557E-04-5.82108680E-04-3.32404661E-03
28  2-4.13217607E-03 1.25716644E-02 7.14569093E-03-7.44852774E-03-2.91318025E-01
28  3-7.40788123E-02 1.88974406E-01-1.69384455E-05-9.72155999E-05 5.27378751E-05
28  4 6.17853052E-06 2.28780413E-05-9.62454728E-05-7.44446832E-04 6.39271141E-04
28  5 1.49058120E-04 2.76304458E-03 5.38316021E-03 4.94301916E-03-9.78219822E-03
28  6-1.39565841E-02 1.78409130E-02 2.86689502E-01 7.84741059E-02-2.00444435E-01
29  1 7.61499591E-04-2.44800339E-04 1.42301507E-04-3.60423402E-03-1.55350560E-03
29  2-5.54039482E-03-2.69764386E-02-1.69554160E-03 2.27905216E-02-7.10842805E-02
29  3-1.05231829E-01 7.78472817E-02-3.04823159E-05-1.89690267E-04-6.42991138E-06
29  4 2.30464552E-05 2.27539095E-05-5.06645257E-05-7.56525460E-04 6.40046197E-04
29  5 2.64265995E-04 5.26342632E-03 9.80770958E-04 9.42630905E-03 1.79299087E-02
29  6 1.07002648E-02-1.52339453E-02 7.84741059E-02 9.65715413E-02-8.96392608E-02
30  1 1.45787190E-03-6.75799799E-04 2.12786955E-04-4.31101851E-03-5.65291108E-03
30  2-5.58805902E-03 1.74197343E-02 3.33151409E-03-3.94479394E-03 1.86675233E-01
30  3 7.98566174E-02-2.17601484E-01-6.26028726E-05-2.29033195E-04-1.61915344E-04
30  4 9.65512839E-05 5.09084950E-05 1.11060487E-04-6.04430510E-04 6.72144795E-04
30  5 2.15448544E-04 5.04435710E-03 9.37224616E-03 8.56554636E-03-5.27129249E-03
30  6 2.91362910E-03 4.62083868E-03-2.00444435E-01-8.96392608E-02 2.13570543E-01
 $END
